hidden_size(5).
input_size(3).
num_hidden_layers(2).
output_size(2).
edge(1, 1, 2, 1, 5000).
edge(1, 2, 2, 1, 5000).
edge(1, 3, 2, 1, 5000).
edge(1, 0, 2, 1, 5000).
edge(2, 1, 3, 1, 5000).
edge(2, 2, 3, 1, 5000).
edge(2, 3, 3, 1, 5000).
edge(2, 4, 3, 1, 5000).
edge(2, 5, 3, 1, 5000).
edge(2, 0, 3, 1, 5000).
edge(1, 1, 2, 2, 5000).
edge(1, 2, 2, 2, 5000).
edge(1, 3, 2, 2, 5000).
edge(1, 0, 2, 2, 5000).
edge(2, 1, 3, 2, 5000).
edge(2, 2, 3, 2, 5000).
edge(2, 3, 3, 2, 5000).
edge(2, 4, 3, 2, 5000).
edge(2, 5, 3, 2, 5000).
edge(2, 0, 3, 2, 5000).
edge(1, 1, 2, 3, 5000).
edge(1, 2, 2, 3, 5000).
edge(1, 3, 2, 3, 5000).
edge(1, 0, 2, 3, 5000).
edge(2, 1, 3, 3, 5000).
edge(2, 2, 3, 3, 5000).
edge(2, 3, 3, 3, 5000).
edge(2, 4, 3, 3, 5000).
edge(2, 5, 3, 3, 5000).
edge(2, 0, 3, 3, 5000).
edge(1, 1, 2, 4, 5000).
edge(1, 2, 2, 4, 5000).
edge(1, 3, 2, 4, 5000).
edge(1, 0, 2, 4, 5000).
edge(2, 1, 3, 4, 5000).
edge(2, 2, 3, 4, 5000).
edge(2, 3, 3, 4, 5000).
edge(2, 4, 3, 4, 5000).
edge(2, 5, 3, 4, 5000).
edge(2, 0, 3, 4, 5000).
edge(1, 1, 2, 5, 5000).
edge(1, 2, 2, 5, 5000).
edge(1, 3, 2, 5, 5000).
edge(1, 0, 2, 5, 5000).
edge(2, 1, 3, 5, 5000).
edge(2, 2, 3, 5, 5000).
edge(2, 3, 3, 5, 5000).
edge(2, 4, 3, 5, 5000).
edge(2, 5, 3, 5, 5000).
edge(2, 0, 3, 5, 5000).
edge(3, 1, 4, 1, 5000).
edge(3, 2, 4, 1, 5000).
edge(3, 3, 4, 1, 5000).
edge(3, 4, 4, 1, 5000).
edge(3, 5, 4, 1, 5000).
edge(3, 0, 4, 1, 5000).
edge(3, 1, 4, 2, 5000).
edge(3, 2, 4, 2, 5000).
edge(3, 3, 4, 2, 5000).
edge(3, 4, 4, 2, 5000).
edge(3, 5, 4, 2, 5000).
edge(3, 0, 4, 2, 5000).
neuron(bias, 1, 0).
neuron(bias, 1, 0, -10000).
neuron(bias, 2, 0).
neuron(bias, 2, 0, -10000).
neuron(bias, 3, 0).
neuron(bias, 3, 0, -10000).
neuron(input, 1, 1).
neuron(input, 1, 1, 12345).
neuron(input, 1, 2).
neuron(input, 1, 2, 67890).
neuron(input, 1, 3).
neuron(input, 1, 3, 13579).
neuron(hidden, 2, 1).
neuron(hidden, 2, 1, 41906).
neuron(hidden, 2, 2).
neuron(hidden, 2, 2, 41906).
neuron(hidden, 2, 3).
neuron(hidden, 2, 3, 41906).
neuron(hidden, 2, 4).
neuron(hidden, 2, 4, 41906).
neuron(hidden, 2, 5).
neuron(hidden, 2, 5, 41906).
neuron(hidden, 3, 1).
neuron(hidden, 3, 1, 99765).
neuron(hidden, 3, 2).
neuron(hidden, 3, 2, 99765).
neuron(hidden, 3, 3).
neuron(hidden, 3, 3, 99765).
neuron(hidden, 3, 4).
neuron(hidden, 3, 4, 99765).
neuron(hidden, 3, 5).
neuron(hidden, 3, 5, 99765).
neuron(output, 4, 1).
neuron(output, 4, 1, 244410).
neuron(output, 4, 2).
neuron(output, 4, 2, 244410).
excitation(output, 4, 2, 244410).
excitation(output, 4, 1, 244410).