label(3).
neuron(input, 1, 1, 0).
neuron(input, 1, 2, 0).
neuron(input, 1, 3, 0).
neuron(input, 1, 4, 0).
neuron(input, 1, 5, 0).
neuron(input, 1, 6, 0).
neuron(input, 1, 7, 0).
neuron(input, 1, 8, 0).
neuron(input, 1, 9, 0).
neuron(input, 1, 10, 0).
neuron(input, 1, 11, 0).
neuron(input, 1, 12, 0).
neuron(input, 1, 13, 0).
neuron(input, 1, 14, 0).
neuron(input, 1, 15, 0).
neuron(input, 1, 16, 0).
neuron(input, 1, 17, 0).
neuron(input, 1, 18, 0).
neuron(input, 1, 19, 0).
neuron(input, 1, 20, 0).
neuron(input, 1, 21, 0).
neuron(input, 1, 22, 0).
neuron(input, 1, 23, 0).
neuron(input, 1, 24, 0).
neuron(input, 1, 25, 0).
neuron(input, 1, 26, 0).
neuron(input, 1, 27, 0).
neuron(input, 1, 28, 0).
neuron(input, 1, 29, 0).
neuron(input, 1, 30, 0).
neuron(input, 1, 31, 0).
neuron(input, 1, 32, 0).
neuron(input, 1, 33, 0).
neuron(input, 1, 34, 0).
neuron(input, 1, 35, 0).
neuron(input, 1, 36, 0).
neuron(input, 1, 37, 0).
neuron(input, 1, 38, 0).
neuron(input, 1, 39, 0).
neuron(input, 1, 40, 0).
neuron(input, 1, 41, 0).
neuron(input, 1, 42, 0).
neuron(input, 1, 43, 0).
neuron(input, 1, 44, 0).
neuron(input, 1, 45, 0).
neuron(input, 1, 46, 0).
neuron(input, 1, 47, 0).
neuron(input, 1, 48, 0).
neuron(input, 1, 49, 0).
neuron(input, 1, 50, 0).
neuron(input, 1, 51, 0).
neuron(input, 1, 52, 0).
neuron(input, 1, 53, 0).
neuron(input, 1, 54, 0).
neuron(input, 1, 55, 0).
neuron(input, 1, 56, 0).
neuron(input, 1, 57, 0).
neuron(input, 1, 58, 0).
neuron(input, 1, 59, 0).
neuron(input, 1, 60, 0).
neuron(input, 1, 61, 0).
neuron(input, 1, 62, 0).
neuron(input, 1, 63, 0).
neuron(input, 1, 64, 0).
neuron(input, 1, 65, 0).
neuron(input, 1, 66, 0).
neuron(input, 1, 67, 0).
neuron(input, 1, 68, 0).
neuron(input, 1, 69, 0).
neuron(input, 1, 70, 0).
neuron(input, 1, 71, 0).
neuron(input, 1, 72, 0).
neuron(input, 1, 73, 0).
neuron(input, 1, 74, 0).
neuron(input, 1, 75, 0).
neuron(input, 1, 76, 0).
neuron(input, 1, 77, 0).
neuron(input, 1, 78, 0).
neuron(input, 1, 79, 0).
neuron(input, 1, 80, 0).
neuron(input, 1, 81, 0).
neuron(input, 1, 82, 0).
neuron(input, 1, 83, 0).
neuron(input, 1, 84, 0).
neuron(input, 1, 85, 0).
neuron(input, 1, 86, 0).
neuron(input, 1, 87, 0).
neuron(input, 1, 88, 0).
neuron(input, 1, 89, 0).
neuron(input, 1, 90, 0).
neuron(input, 1, 91, 0).
neuron(input, 1, 92, 0).
neuron(input, 1, 93, 0).
neuron(input, 1, 94, 0).
neuron(input, 1, 95, 0).
neuron(input, 1, 96, 0).
neuron(input, 1, 97, 0).
neuron(input, 1, 98, 0).
neuron(input, 1, 99, 0).
neuron(input, 1, 100, 0).
neuron(input, 1, 101, 0).
neuron(input, 1, 102, 0).
neuron(input, 1, 103, 0).
neuron(input, 1, 104, 0).
neuron(input, 1, 105, 0).
neuron(input, 1, 106, 0).
neuron(input, 1, 107, 0).
neuron(input, 1, 108, 0).
neuron(input, 1, 109, 0).
neuron(input, 1, 110, 0).
neuron(input, 1, 111, 0).
neuron(input, 1, 112, 0).
neuron(input, 1, 113, 0).
neuron(input, 1, 114, 0).
neuron(input, 1, 115, 0).
neuron(input, 1, 116, 0).
neuron(input, 1, 117, 0).
neuron(input, 1, 118, 0).
neuron(input, 1, 119, 0).
neuron(input, 1, 120, 0).
neuron(input, 1, 121, 0).
neuron(input, 1, 122, 0).
neuron(input, 1, 123, 0).
neuron(input, 1, 124, 0).
neuron(input, 1, 125, 0).
neuron(input, 1, 126, 0).
neuron(input, 1, 127, 0).
neuron(input, 1, 128, 0).
neuron(input, 1, 129, 0).
neuron(input, 1, 130, 0).
neuron(input, 1, 131, 0).
neuron(input, 1, 132, 0).
neuron(input, 1, 133, 0).
neuron(input, 1, 134, 0).
neuron(input, 1, 135, 0).
neuron(input, 1, 136, 0).
neuron(input, 1, 137, 0).
neuron(input, 1, 138, 0).
neuron(input, 1, 139, 0).
neuron(input, 1, 140, 0).
neuron(input, 1, 141, 0).
neuron(input, 1, 142, 0).
neuron(input, 1, 143, 0).
neuron(input, 1, 144, 0).
neuron(input, 1, 145, 0).
neuron(input, 1, 146, 0).
neuron(input, 1, 147, 0).
neuron(input, 1, 148, 18).
neuron(input, 1, 149, 38).
neuron(input, 1, 150, 38).
neuron(input, 1, 151, 43).
neuron(input, 1, 152, 146).
neuron(input, 1, 153, 146).
neuron(input, 1, 154, 146).
neuron(input, 1, 155, 169).
neuron(input, 1, 156, 255).
neuron(input, 1, 157, 199).
neuron(input, 1, 158, 113).
neuron(input, 1, 159, 0).
neuron(input, 1, 160, 0).
neuron(input, 1, 161, 0).
neuron(input, 1, 162, 0).
neuron(input, 1, 163, 0).
neuron(input, 1, 164, 0).
neuron(input, 1, 165, 0).
neuron(input, 1, 166, 0).
neuron(input, 1, 167, 0).
neuron(input, 1, 168, 0).
neuron(input, 1, 169, 0).
neuron(input, 1, 170, 0).
neuron(input, 1, 171, 0).
neuron(input, 1, 172, 0).
neuron(input, 1, 173, 0).
neuron(input, 1, 174, 0).
neuron(input, 1, 175, 0).
neuron(input, 1, 176, 146).
neuron(input, 1, 177, 253).
neuron(input, 1, 178, 253).
neuron(input, 1, 179, 253).
neuron(input, 1, 180, 253).
neuron(input, 1, 181, 253).
neuron(input, 1, 182, 253).
neuron(input, 1, 183, 253).
neuron(input, 1, 184, 253).
neuron(input, 1, 185, 253).
neuron(input, 1, 186, 212).
neuron(input, 1, 187, 15).
neuron(input, 1, 188, 0).
neuron(input, 1, 189, 0).
neuron(input, 1, 190, 0).
neuron(input, 1, 191, 0).
neuron(input, 1, 192, 0).
neuron(input, 1, 193, 0).
neuron(input, 1, 194, 0).
neuron(input, 1, 195, 0).
neuron(input, 1, 196, 0).
neuron(input, 1, 197, 0).
neuron(input, 1, 198, 0).
neuron(input, 1, 199, 0).
neuron(input, 1, 200, 0).
neuron(input, 1, 201, 0).
neuron(input, 1, 202, 0).
neuron(input, 1, 203, 67).
neuron(input, 1, 204, 250).
neuron(input, 1, 205, 253).
neuron(input, 1, 206, 249).
neuron(input, 1, 207, 248).
neuron(input, 1, 208, 248).
neuron(input, 1, 209, 211).
neuron(input, 1, 210, 139).
neuron(input, 1, 211, 166).
neuron(input, 1, 212, 253).
neuron(input, 1, 213, 253).
neuron(input, 1, 214, 201).
neuron(input, 1, 215, 6).
neuron(input, 1, 216, 0).
neuron(input, 1, 217, 0).
neuron(input, 1, 218, 0).
neuron(input, 1, 219, 0).
neuron(input, 1, 220, 0).
neuron(input, 1, 221, 0).
neuron(input, 1, 222, 0).
neuron(input, 1, 223, 0).
neuron(input, 1, 224, 0).
neuron(input, 1, 225, 0).
neuron(input, 1, 226, 0).
neuron(input, 1, 227, 0).
neuron(input, 1, 228, 0).
neuron(input, 1, 229, 0).
neuron(input, 1, 230, 0).
neuron(input, 1, 231, 31).
neuron(input, 1, 232, 216).
neuron(input, 1, 233, 209).
neuron(input, 1, 234, 26).
neuron(input, 1, 235, 0).
neuron(input, 1, 236, 0).
neuron(input, 1, 237, 0).
neuron(input, 1, 238, 29).
neuron(input, 1, 239, 217).
neuron(input, 1, 240, 253).
neuron(input, 1, 241, 250).
neuron(input, 1, 242, 115).
neuron(input, 1, 243, 0).
neuron(input, 1, 244, 0).
neuron(input, 1, 245, 0).
neuron(input, 1, 246, 0).
neuron(input, 1, 247, 0).
neuron(input, 1, 248, 0).
neuron(input, 1, 249, 0).
neuron(input, 1, 250, 0).
neuron(input, 1, 251, 0).
neuron(input, 1, 252, 0).
neuron(input, 1, 253, 0).
neuron(input, 1, 254, 0).
neuron(input, 1, 255, 0).
neuron(input, 1, 256, 0).
neuron(input, 1, 257, 0).
neuron(input, 1, 258, 0).
neuron(input, 1, 259, 0).
neuron(input, 1, 260, 29).
neuron(input, 1, 261, 26).
neuron(input, 1, 262, 0).
neuron(input, 1, 263, 0).
neuron(input, 1, 264, 0).
neuron(input, 1, 265, 28).
neuron(input, 1, 266, 212).
neuron(input, 1, 267, 253).
neuron(input, 1, 268, 253).
neuron(input, 1, 269, 117).
neuron(input, 1, 270, 0).
neuron(input, 1, 271, 0).
neuron(input, 1, 272, 0).
neuron(input, 1, 273, 0).
neuron(input, 1, 274, 0).
neuron(input, 1, 275, 0).
neuron(input, 1, 276, 0).
neuron(input, 1, 277, 0).
neuron(input, 1, 278, 0).
neuron(input, 1, 279, 0).
neuron(input, 1, 280, 0).
neuron(input, 1, 281, 0).
neuron(input, 1, 282, 0).
neuron(input, 1, 283, 0).
neuron(input, 1, 284, 0).
neuron(input, 1, 285, 0).
neuron(input, 1, 286, 0).
neuron(input, 1, 287, 0).
neuron(input, 1, 288, 0).
neuron(input, 1, 289, 0).
neuron(input, 1, 290, 0).
neuron(input, 1, 291, 1).
neuron(input, 1, 292, 79).
neuron(input, 1, 293, 211).
neuron(input, 1, 294, 253).
neuron(input, 1, 295, 251).
neuron(input, 1, 296, 118).
neuron(input, 1, 297, 2).
neuron(input, 1, 298, 0).
neuron(input, 1, 299, 0).
neuron(input, 1, 300, 0).
neuron(input, 1, 301, 0).
neuron(input, 1, 302, 0).
neuron(input, 1, 303, 0).
neuron(input, 1, 304, 0).
neuron(input, 1, 305, 0).
neuron(input, 1, 306, 0).
neuron(input, 1, 307, 0).
neuron(input, 1, 308, 0).
neuron(input, 1, 309, 0).
neuron(input, 1, 310, 0).
neuron(input, 1, 311, 0).
neuron(input, 1, 312, 0).
neuron(input, 1, 313, 0).
neuron(input, 1, 314, 0).
neuron(input, 1, 315, 0).
neuron(input, 1, 316, 0).
neuron(input, 1, 317, 0).
neuron(input, 1, 318, 16).
neuron(input, 1, 319, 150).
neuron(input, 1, 320, 253).
neuron(input, 1, 321, 253).
neuron(input, 1, 322, 243).
neuron(input, 1, 323, 76).
neuron(input, 1, 324, 0).
neuron(input, 1, 325, 0).
neuron(input, 1, 326, 0).
neuron(input, 1, 327, 0).
neuron(input, 1, 328, 0).
neuron(input, 1, 329, 0).
neuron(input, 1, 330, 0).
neuron(input, 1, 331, 0).
neuron(input, 1, 332, 0).
neuron(input, 1, 333, 0).
neuron(input, 1, 334, 0).
neuron(input, 1, 335, 0).
neuron(input, 1, 336, 0).
neuron(input, 1, 337, 0).
neuron(input, 1, 338, 0).
neuron(input, 1, 339, 0).
neuron(input, 1, 340, 0).
neuron(input, 1, 341, 0).
neuron(input, 1, 342, 0).
neuron(input, 1, 343, 0).
neuron(input, 1, 344, 0).
neuron(input, 1, 345, 15).
neuron(input, 1, 346, 186).
neuron(input, 1, 347, 253).
neuron(input, 1, 348, 253).
neuron(input, 1, 349, 253).
neuron(input, 1, 350, 243).
neuron(input, 1, 351, 87).
neuron(input, 1, 352, 19).
neuron(input, 1, 353, 0).
neuron(input, 1, 354, 0).
neuron(input, 1, 355, 0).
neuron(input, 1, 356, 0).
neuron(input, 1, 357, 0).
neuron(input, 1, 358, 0).
neuron(input, 1, 359, 0).
neuron(input, 1, 360, 0).
neuron(input, 1, 361, 0).
neuron(input, 1, 362, 0).
neuron(input, 1, 363, 0).
neuron(input, 1, 364, 0).
neuron(input, 1, 365, 0).
neuron(input, 1, 366, 0).
neuron(input, 1, 367, 0).
neuron(input, 1, 368, 0).
neuron(input, 1, 369, 0).
neuron(input, 1, 370, 0).
neuron(input, 1, 371, 0).
neuron(input, 1, 372, 0).
neuron(input, 1, 373, 4).
neuron(input, 1, 374, 102).
neuron(input, 1, 375, 234).
neuron(input, 1, 376, 253).
neuron(input, 1, 377, 253).
neuron(input, 1, 378, 253).
neuron(input, 1, 379, 253).
neuron(input, 1, 380, 237).
neuron(input, 1, 381, 177).
neuron(input, 1, 382, 100).
neuron(input, 1, 383, 11).
neuron(input, 1, 384, 0).
neuron(input, 1, 385, 0).
neuron(input, 1, 386, 0).
neuron(input, 1, 387, 0).
neuron(input, 1, 388, 0).
neuron(input, 1, 389, 0).
neuron(input, 1, 390, 0).
neuron(input, 1, 391, 0).
neuron(input, 1, 392, 0).
neuron(input, 1, 393, 0).
neuron(input, 1, 394, 0).
neuron(input, 1, 395, 0).
neuron(input, 1, 396, 0).
neuron(input, 1, 397, 0).
neuron(input, 1, 398, 0).
neuron(input, 1, 399, 0).
neuron(input, 1, 400, 0).
neuron(input, 1, 401, 0).
neuron(input, 1, 402, 0).
neuron(input, 1, 403, 90).
neuron(input, 1, 404, 158).
neuron(input, 1, 405, 199).
neuron(input, 1, 406, 199).
neuron(input, 1, 407, 234).
neuron(input, 1, 408, 253).
neuron(input, 1, 409, 253).
neuron(input, 1, 410, 253).
neuron(input, 1, 411, 218).
neuron(input, 1, 412, 105).
neuron(input, 1, 413, 18).
neuron(input, 1, 414, 0).
neuron(input, 1, 415, 0).
neuron(input, 1, 416, 0).
neuron(input, 1, 417, 0).
neuron(input, 1, 418, 0).
neuron(input, 1, 419, 0).
neuron(input, 1, 420, 0).
neuron(input, 1, 421, 0).
neuron(input, 1, 422, 0).
neuron(input, 1, 423, 0).
neuron(input, 1, 424, 0).
neuron(input, 1, 425, 0).
neuron(input, 1, 426, 0).
neuron(input, 1, 427, 0).
neuron(input, 1, 428, 0).
neuron(input, 1, 429, 0).
neuron(input, 1, 430, 0).
neuron(input, 1, 431, 0).
neuron(input, 1, 432, 0).
neuron(input, 1, 433, 0).
neuron(input, 1, 434, 0).
neuron(input, 1, 435, 35).
neuron(input, 1, 436, 93).
neuron(input, 1, 437, 169).
neuron(input, 1, 438, 253).
neuron(input, 1, 439, 253).
neuron(input, 1, 440, 253).
neuron(input, 1, 441, 189).
neuron(input, 1, 442, 16).
neuron(input, 1, 443, 0).
neuron(input, 1, 444, 0).
neuron(input, 1, 445, 0).
neuron(input, 1, 446, 0).
neuron(input, 1, 447, 0).
neuron(input, 1, 448, 0).
neuron(input, 1, 449, 0).
neuron(input, 1, 450, 0).
neuron(input, 1, 451, 0).
neuron(input, 1, 452, 0).
neuron(input, 1, 453, 0).
neuron(input, 1, 454, 0).
neuron(input, 1, 455, 0).
neuron(input, 1, 456, 0).
neuron(input, 1, 457, 0).
neuron(input, 1, 458, 0).
neuron(input, 1, 459, 0).
neuron(input, 1, 460, 0).
neuron(input, 1, 461, 0).
neuron(input, 1, 462, 0).
neuron(input, 1, 463, 0).
neuron(input, 1, 464, 0).
neuron(input, 1, 465, 2).
neuron(input, 1, 466, 16).
neuron(input, 1, 467, 191).
neuron(input, 1, 468, 253).
neuron(input, 1, 469, 253).
neuron(input, 1, 470, 197).
neuron(input, 1, 471, 12).
neuron(input, 1, 472, 0).
neuron(input, 1, 473, 0).
neuron(input, 1, 474, 0).
neuron(input, 1, 475, 0).
neuron(input, 1, 476, 0).
neuron(input, 1, 477, 0).
neuron(input, 1, 478, 0).
neuron(input, 1, 479, 0).
neuron(input, 1, 480, 0).
neuron(input, 1, 481, 0).
neuron(input, 1, 482, 0).
neuron(input, 1, 483, 0).
neuron(input, 1, 484, 0).
neuron(input, 1, 485, 0).
neuron(input, 1, 486, 0).
neuron(input, 1, 487, 54).
neuron(input, 1, 488, 23).
neuron(input, 1, 489, 0).
neuron(input, 1, 490, 0).
neuron(input, 1, 491, 0).
neuron(input, 1, 492, 0).
neuron(input, 1, 493, 0).
neuron(input, 1, 494, 0).
neuron(input, 1, 495, 0).
neuron(input, 1, 496, 140).
neuron(input, 1, 497, 235).
neuron(input, 1, 498, 253).
neuron(input, 1, 499, 192).
neuron(input, 1, 500, 18).
neuron(input, 1, 501, 0).
neuron(input, 1, 502, 0).
neuron(input, 1, 503, 0).
neuron(input, 1, 504, 0).
neuron(input, 1, 505, 0).
neuron(input, 1, 506, 0).
neuron(input, 1, 507, 0).
neuron(input, 1, 508, 0).
neuron(input, 1, 509, 0).
neuron(input, 1, 510, 0).
neuron(input, 1, 511, 0).
neuron(input, 1, 512, 0).
neuron(input, 1, 513, 17).
neuron(input, 1, 514, 178).
neuron(input, 1, 515, 198).
neuron(input, 1, 516, 19).
neuron(input, 1, 517, 0).
neuron(input, 1, 518, 0).
neuron(input, 1, 519, 0).
neuron(input, 1, 520, 0).
neuron(input, 1, 521, 0).
neuron(input, 1, 522, 0).
neuron(input, 1, 523, 0).
neuron(input, 1, 524, 0).
neuron(input, 1, 525, 86).
neuron(input, 1, 526, 253).
neuron(input, 1, 527, 253).
neuron(input, 1, 528, 75).
neuron(input, 1, 529, 0).
neuron(input, 1, 530, 0).
neuron(input, 1, 531, 0).
neuron(input, 1, 532, 0).
neuron(input, 1, 533, 0).
neuron(input, 1, 534, 0).
neuron(input, 1, 535, 0).
neuron(input, 1, 536, 0).
neuron(input, 1, 537, 0).
neuron(input, 1, 538, 0).
neuron(input, 1, 539, 0).
neuron(input, 1, 540, 0).
neuron(input, 1, 541, 102).
neuron(input, 1, 542, 253).
neuron(input, 1, 543, 89).
neuron(input, 1, 544, 0).
neuron(input, 1, 545, 0).
neuron(input, 1, 546, 0).
neuron(input, 1, 547, 0).
neuron(input, 1, 548, 0).
neuron(input, 1, 549, 0).
neuron(input, 1, 550, 0).
neuron(input, 1, 551, 0).
neuron(input, 1, 552, 0).
neuron(input, 1, 553, 10).
neuron(input, 1, 554, 217).
neuron(input, 1, 555, 253).
neuron(input, 1, 556, 75).
neuron(input, 1, 557, 0).
neuron(input, 1, 558, 0).
neuron(input, 1, 559, 0).
neuron(input, 1, 560, 0).
neuron(input, 1, 561, 0).
neuron(input, 1, 562, 0).
neuron(input, 1, 563, 0).
neuron(input, 1, 564, 0).
neuron(input, 1, 565, 0).
neuron(input, 1, 566, 0).
neuron(input, 1, 567, 0).
neuron(input, 1, 568, 0).
neuron(input, 1, 569, 151).
neuron(input, 1, 570, 253).
neuron(input, 1, 571, 162).
neuron(input, 1, 572, 0).
neuron(input, 1, 573, 0).
neuron(input, 1, 574, 0).
neuron(input, 1, 575, 0).
neuron(input, 1, 576, 0).
neuron(input, 1, 577, 0).
neuron(input, 1, 578, 0).
neuron(input, 1, 579, 0).
neuron(input, 1, 580, 0).
neuron(input, 1, 581, 93).
neuron(input, 1, 582, 253).
neuron(input, 1, 583, 253).
neuron(input, 1, 584, 75).
neuron(input, 1, 585, 0).
neuron(input, 1, 586, 0).
neuron(input, 1, 587, 0).
neuron(input, 1, 588, 0).
neuron(input, 1, 589, 0).
neuron(input, 1, 590, 0).
neuron(input, 1, 591, 0).
neuron(input, 1, 592, 0).
neuron(input, 1, 593, 0).
neuron(input, 1, 594, 0).
neuron(input, 1, 595, 0).
neuron(input, 1, 596, 0).
neuron(input, 1, 597, 44).
neuron(input, 1, 598, 227).
neuron(input, 1, 599, 252).
neuron(input, 1, 600, 170).
neuron(input, 1, 601, 0).
neuron(input, 1, 602, 0).
neuron(input, 1, 603, 0).
neuron(input, 1, 604, 0).
neuron(input, 1, 605, 0).
neuron(input, 1, 606, 0).
neuron(input, 1, 607, 0).
neuron(input, 1, 608, 67).
neuron(input, 1, 609, 240).
neuron(input, 1, 610, 253).
neuron(input, 1, 611, 226).
neuron(input, 1, 612, 13).
neuron(input, 1, 613, 0).
neuron(input, 1, 614, 0).
neuron(input, 1, 615, 0).
neuron(input, 1, 616, 0).
neuron(input, 1, 617, 0).
neuron(input, 1, 618, 0).
neuron(input, 1, 619, 0).
neuron(input, 1, 620, 0).
neuron(input, 1, 621, 0).
neuron(input, 1, 622, 0).
neuron(input, 1, 623, 0).
neuron(input, 1, 624, 0).
neuron(input, 1, 625, 0).
neuron(input, 1, 626, 85).
neuron(input, 1, 627, 225).
neuron(input, 1, 628, 253).
neuron(input, 1, 629, 212).
neuron(input, 1, 630, 42).
neuron(input, 1, 631, 33).
neuron(input, 1, 632, 21).
neuron(input, 1, 633, 40).
neuron(input, 1, 634, 141).
neuron(input, 1, 635, 229).
neuron(input, 1, 636, 251).
neuron(input, 1, 637, 253).
neuron(input, 1, 638, 226).
neuron(input, 1, 639, 8).
neuron(input, 1, 640, 0).
neuron(input, 1, 641, 0).
neuron(input, 1, 642, 0).
neuron(input, 1, 643, 0).
neuron(input, 1, 644, 0).
neuron(input, 1, 645, 0).
neuron(input, 1, 646, 0).
neuron(input, 1, 647, 0).
neuron(input, 1, 648, 0).
neuron(input, 1, 649, 0).
neuron(input, 1, 650, 0).
neuron(input, 1, 651, 0).
neuron(input, 1, 652, 0).
neuron(input, 1, 653, 0).
neuron(input, 1, 654, 0).
neuron(input, 1, 655, 40).
neuron(input, 1, 656, 196).
neuron(input, 1, 657, 253).
neuron(input, 1, 658, 253).
neuron(input, 1, 659, 253).
neuron(input, 1, 660, 226).
neuron(input, 1, 661, 249).
neuron(input, 1, 662, 253).
neuron(input, 1, 663, 253).
neuron(input, 1, 664, 253).
neuron(input, 1, 665, 177).
neuron(input, 1, 666, 13).
neuron(input, 1, 667, 0).
neuron(input, 1, 668, 0).
neuron(input, 1, 669, 0).
neuron(input, 1, 670, 0).
neuron(input, 1, 671, 0).
neuron(input, 1, 672, 0).
neuron(input, 1, 673, 0).
neuron(input, 1, 674, 0).
neuron(input, 1, 675, 0).
neuron(input, 1, 676, 0).
neuron(input, 1, 677, 0).
neuron(input, 1, 678, 0).
neuron(input, 1, 679, 0).
neuron(input, 1, 680, 0).
neuron(input, 1, 681, 0).
neuron(input, 1, 682, 0).
neuron(input, 1, 683, 0).
neuron(input, 1, 684, 8).
neuron(input, 1, 685, 74).
neuron(input, 1, 686, 152).
neuron(input, 1, 687, 253).
neuron(input, 1, 688, 253).
neuron(input, 1, 689, 253).
neuron(input, 1, 690, 228).
neuron(input, 1, 691, 145).
neuron(input, 1, 692, 88).
neuron(input, 1, 693, 12).
neuron(input, 1, 694, 0).
neuron(input, 1, 695, 0).
neuron(input, 1, 696, 0).
neuron(input, 1, 697, 0).
neuron(input, 1, 698, 0).
neuron(input, 1, 699, 0).
neuron(input, 1, 700, 0).
neuron(input, 1, 701, 0).
neuron(input, 1, 702, 0).
neuron(input, 1, 703, 0).
neuron(input, 1, 704, 0).
neuron(input, 1, 705, 0).
neuron(input, 1, 706, 0).
neuron(input, 1, 707, 0).
neuron(input, 1, 708, 0).
neuron(input, 1, 709, 0).
neuron(input, 1, 710, 0).
neuron(input, 1, 711, 0).
neuron(input, 1, 712, 0).
neuron(input, 1, 713, 0).
neuron(input, 1, 714, 0).
neuron(input, 1, 715, 0).
neuron(input, 1, 716, 0).
neuron(input, 1, 717, 0).
neuron(input, 1, 718, 0).
neuron(input, 1, 719, 0).
neuron(input, 1, 720, 0).
neuron(input, 1, 721, 0).
neuron(input, 1, 722, 0).
neuron(input, 1, 723, 0).
neuron(input, 1, 724, 0).
neuron(input, 1, 725, 0).
neuron(input, 1, 726, 0).
neuron(input, 1, 727, 0).
neuron(input, 1, 728, 0).
neuron(input, 1, 729, 0).
neuron(input, 1, 730, 0).
neuron(input, 1, 731, 0).
neuron(input, 1, 732, 0).
neuron(input, 1, 733, 0).
neuron(input, 1, 734, 0).
neuron(input, 1, 735, 0).
neuron(input, 1, 736, 0).
neuron(input, 1, 737, 0).
neuron(input, 1, 738, 0).
neuron(input, 1, 739, 0).
neuron(input, 1, 740, 0).
neuron(input, 1, 741, 0).
neuron(input, 1, 742, 0).
neuron(input, 1, 743, 0).
neuron(input, 1, 744, 0).
neuron(input, 1, 745, 0).
neuron(input, 1, 746, 0).
neuron(input, 1, 747, 0).
neuron(input, 1, 748, 0).
neuron(input, 1, 749, 0).
neuron(input, 1, 750, 0).
neuron(input, 1, 751, 0).
neuron(input, 1, 752, 0).
neuron(input, 1, 753, 0).
neuron(input, 1, 754, 0).
neuron(input, 1, 755, 0).
neuron(input, 1, 756, 0).
neuron(input, 1, 757, 0).
neuron(input, 1, 758, 0).
neuron(input, 1, 759, 0).
neuron(input, 1, 760, 0).
neuron(input, 1, 761, 0).
neuron(input, 1, 762, 0).
neuron(input, 1, 763, 0).
neuron(input, 1, 764, 0).
neuron(input, 1, 765, 0).
neuron(input, 1, 766, 0).
neuron(input, 1, 767, 0).
neuron(input, 1, 768, 0).
neuron(input, 1, 769, 0).
neuron(input, 1, 770, 0).
neuron(input, 1, 771, 0).
neuron(input, 1, 772, 0).
neuron(input, 1, 773, 0).
neuron(input, 1, 774, 0).
neuron(input, 1, 775, 0).
neuron(input, 1, 776, 0).
neuron(input, 1, 777, 0).
neuron(input, 1, 778, 0).
neuron(input, 1, 779, 0).
neuron(input, 1, 780, 0).
neuron(input, 1, 781, 0).
neuron(input, 1, 782, 0).
neuron(input, 1, 783, 0).
neuron(input, 1, 784, 0).