pixel(1, 1, 255, 5).
pixel(1, 2, 255, 5).
pixel(1, 3, 255, 5).
pixel(1, 4, 255, 5).
pixel(1, 5, 255, 5).
pixel(1, 6, 255, 5).
pixel(1, 7, 255, 5).
pixel(1, 8, 255, 5).
pixel(1, 9, 255, 5).
pixel(1, 10, 255, 5).
pixel(1, 11, 255, 5).
pixel(1, 12, 255, 5).
pixel(1, 13, 255, 5).
pixel(1, 14, 255, 5).
pixel(1, 15, 255, 5).
pixel(1, 16, 255, 5).
pixel(1, 17, 255, 5).
pixel(1, 18, 255, 5).
pixel(1, 19, 255, 5).
pixel(1, 20, 255, 5).
pixel(1, 21, 255, 5).
pixel(1, 22, 255, 5).
pixel(1, 23, 255, 5).
pixel(1, 24, 255, 5).
pixel(1, 25, 255, 5).
pixel(1, 26, 255, 5).
pixel(1, 27, 255, 5).
pixel(1, 28, 255, 5).
pixel(2, 1, 255, 5).
pixel(2, 2, 255, 5).
pixel(2, 3, 255, 5).
pixel(2, 4, 255, 5).
pixel(2, 5, 255, 5).
pixel(2, 6, 255, 5).
pixel(2, 7, 255, 5).
pixel(2, 8, 255, 5).
pixel(2, 9, 255, 5).
pixel(2, 10, 255, 5).
pixel(2, 11, 255, 5).
pixel(2, 12, 255, 5).
pixel(2, 13, 255, 5).
pixel(2, 14, 255, 5).
pixel(2, 15, 255, 5).
pixel(2, 16, 255, 5).
pixel(2, 17, 255, 5).
pixel(2, 18, 255, 5).
pixel(2, 19, 255, 5).
pixel(2, 20, 255, 5).
pixel(2, 21, 255, 5).
pixel(2, 22, 255, 5).
pixel(2, 23, 255, 5).
pixel(2, 24, 255, 5).
pixel(2, 25, 255, 5).
pixel(2, 26, 255, 5).
pixel(2, 27, 255, 5).
pixel(2, 28, 255, 5).
pixel(3, 1, 255, 5).
pixel(3, 2, 255, 5).
pixel(3, 3, 255, 5).
pixel(3, 4, 255, 5).
pixel(3, 5, 255, 5).
pixel(3, 6, 255, 5).
pixel(3, 7, 255, 5).
pixel(3, 8, 255, 5).
pixel(3, 9, 255, 5).
pixel(3, 10, 255, 5).
pixel(3, 11, 255, 5).
pixel(3, 12, 255, 5).
pixel(3, 13, 255, 5).
pixel(3, 14, 255, 5).
pixel(3, 15, 255, 5).
pixel(3, 16, 255, 5).
pixel(3, 17, 255, 5).
pixel(3, 18, 255, 5).
pixel(3, 19, 255, 5).
pixel(3, 20, 255, 5).
pixel(3, 21, 255, 5).
pixel(3, 22, 255, 5).
pixel(3, 23, 255, 5).
pixel(3, 24, 255, 5).
pixel(3, 25, 255, 5).
pixel(3, 26, 255, 5).
pixel(3, 27, 255, 5).
pixel(3, 28, 255, 5).
pixel(4, 1, 255, 5).
pixel(4, 2, 255, 5).
pixel(4, 3, 255, 5).
pixel(4, 4, 255, 5).
pixel(4, 5, 255, 5).
pixel(4, 6, 255, 5).
pixel(4, 7, 255, 5).
pixel(4, 8, 255, 5).
pixel(4, 9, 255, 5).
pixel(4, 10, 255, 5).
pixel(4, 11, 255, 5).
pixel(4, 12, 255, 5).
pixel(4, 13, 255, 5).
pixel(4, 14, 255, 5).
pixel(4, 15, 255, 5).
pixel(4, 16, 255, 5).
pixel(4, 17, 255, 5).
pixel(4, 18, 255, 5).
pixel(4, 19, 255, 5).
pixel(4, 20, 255, 5).
pixel(4, 21, 255, 5).
pixel(4, 22, 255, 5).
pixel(4, 23, 255, 5).
pixel(4, 24, 255, 5).
pixel(4, 25, 255, 5).
pixel(4, 26, 255, 5).
pixel(4, 27, 255, 5).
pixel(4, 28, 255, 5).
pixel(5, 1, 255, 5).
pixel(5, 2, 255, 5).
pixel(5, 3, 255, 5).
pixel(5, 4, 255, 5).
pixel(5, 5, 255, 5).
pixel(5, 6, 255, 5).
pixel(5, 7, 255, 5).
pixel(5, 8, 255, 5).
pixel(5, 9, 255, 5).
pixel(5, 10, 255, 5).
pixel(5, 11, 255, 5).
pixel(5, 12, 255, 5).
pixel(5, 13, 255, 5).
pixel(5, 14, 255, 5).
pixel(5, 15, 255, 5).
pixel(5, 16, 255, 5).
pixel(5, 17, 255, 5).
pixel(5, 18, 255, 5).
pixel(5, 19, 255, 5).
pixel(5, 20, 255, 5).
pixel(5, 21, 255, 5).
pixel(5, 22, 255, 5).
pixel(5, 23, 255, 5).
pixel(5, 24, 255, 5).
pixel(5, 25, 255, 5).
pixel(5, 26, 255, 5).
pixel(5, 27, 255, 5).
pixel(5, 28, 255, 5).
pixel(6, 1, 255, 5).
pixel(6, 2, 255, 5).
pixel(6, 3, 255, 5).
pixel(6, 4, 255, 5).
pixel(6, 5, 255, 5).
pixel(6, 6, 255, 5).
pixel(6, 7, 255, 5).
pixel(6, 8, 255, 5).
pixel(6, 9, 255, 5).
pixel(6, 10, 255, 5).
pixel(6, 11, 255, 5).
pixel(6, 12, 255, 5).
pixel(6, 13, 252, 5).
pixel(6, 14, 237, 5).
pixel(6, 15, 237, 5).
pixel(6, 16, 237, 5).
pixel(6, 17, 129, 5).
pixel(6, 18, 119, 5).
pixel(6, 19, 80, 5).
pixel(6, 20, 229, 5).
pixel(6, 21, 89, 5).
pixel(6, 22, 0, 5).
pixel(6, 23, 8, 5).
pixel(6, 24, 128, 5).
pixel(6, 25, 255, 5).
pixel(6, 26, 255, 5).
pixel(6, 27, 255, 5).
pixel(6, 28, 255, 5).
pixel(7, 1, 255, 5).
pixel(7, 2, 255, 5).
pixel(7, 3, 255, 5).
pixel(7, 4, 255, 5).
pixel(7, 5, 255, 5).
pixel(7, 6, 255, 5).
pixel(7, 7, 255, 5).
pixel(7, 8, 255, 5).
pixel(7, 9, 225, 5).
pixel(7, 10, 219, 5).
pixel(7, 11, 161, 5).
pixel(7, 12, 101, 5).
pixel(7, 13, 85, 5).
pixel(7, 14, 2, 5).
pixel(7, 15, 2, 5).
pixel(7, 16, 2, 5).
pixel(7, 17, 2, 5).
pixel(7, 18, 2, 5).
pixel(7, 19, 30, 5).
pixel(7, 20, 83, 5).
pixel(7, 21, 2, 5).
pixel(7, 22, 13, 5).
pixel(7, 23, 60, 5).
pixel(7, 24, 191, 5).
pixel(7, 25, 255, 5).
pixel(7, 26, 255, 5).
pixel(7, 27, 255, 5).
pixel(7, 28, 255, 5).
pixel(8, 1, 255, 5).
pixel(8, 2, 255, 5).
pixel(8, 3, 255, 5).
pixel(8, 4, 255, 5).
pixel(8, 5, 255, 5).
pixel(8, 6, 255, 5).
pixel(8, 7, 255, 5).
pixel(8, 8, 206, 5).
pixel(8, 9, 17, 5).
pixel(8, 10, 2, 5).
pixel(8, 11, 2, 5).
pixel(8, 12, 2, 5).
pixel(8, 13, 2, 5).
pixel(8, 14, 2, 5).
pixel(8, 15, 2, 5).
pixel(8, 16, 2, 5).
pixel(8, 17, 2, 5).
pixel(8, 18, 4, 5).
pixel(8, 19, 162, 5).
pixel(8, 20, 173, 5).
pixel(8, 21, 173, 5).
pixel(8, 22, 199, 5).
pixel(8, 23, 216, 5).
pixel(8, 24, 255, 5).
pixel(8, 25, 255, 5).
pixel(8, 26, 255, 5).
pixel(8, 27, 255, 5).
pixel(8, 28, 255, 5).
pixel(9, 1, 255, 5).
pixel(9, 2, 255, 5).
pixel(9, 3, 255, 5).
pixel(9, 4, 255, 5).
pixel(9, 5, 255, 5).
pixel(9, 6, 255, 5).
pixel(9, 7, 255, 5).
pixel(9, 8, 237, 5).
pixel(9, 9, 36, 5).
pixel(9, 10, 2, 5).
pixel(9, 11, 2, 5).
pixel(9, 12, 2, 5).
pixel(9, 13, 2, 5).
pixel(9, 14, 2, 5).
pixel(9, 15, 57, 5).
pixel(9, 16, 73, 5).
pixel(9, 17, 8, 5).
pixel(9, 18, 14, 5).
pixel(9, 19, 255, 5).
pixel(9, 20, 255, 5).
pixel(9, 21, 255, 5).
pixel(9, 22, 255, 5).
pixel(9, 23, 255, 5).
pixel(9, 24, 255, 5).
pixel(9, 25, 255, 5).
pixel(9, 26, 255, 5).
pixel(9, 27, 255, 5).
pixel(9, 28, 255, 5).
pixel(10, 1, 255, 5).
pixel(10, 2, 255, 5).
pixel(10, 3, 255, 5).
pixel(10, 4, 255, 5).
pixel(10, 5, 255, 5).
pixel(10, 6, 255, 5).
pixel(10, 7, 255, 5).
pixel(10, 8, 255, 5).
pixel(10, 9, 175, 5).
pixel(10, 10, 99, 5).
pixel(10, 11, 148, 5).
pixel(10, 12, 2, 5).
pixel(10, 13, 2, 5).
pixel(10, 14, 50, 5).
pixel(10, 15, 244, 5).
pixel(10, 16, 255, 5).
pixel(10, 17, 212, 5).
pixel(10, 18, 101, 5).
pixel(10, 19, 255, 5).
pixel(10, 20, 255, 5).
pixel(10, 21, 255, 5).
pixel(10, 22, 255, 5).
pixel(10, 23, 255, 5).
pixel(10, 24, 255, 5).
pixel(10, 25, 255, 5).
pixel(10, 26, 255, 5).
pixel(10, 27, 255, 5).
pixel(10, 28, 255, 5).
pixel(11, 1, 255, 5).
pixel(11, 2, 255, 5).
pixel(11, 3, 255, 5).
pixel(11, 4, 255, 5).
pixel(11, 5, 255, 5).
pixel(11, 6, 255, 5).
pixel(11, 7, 255, 5).
pixel(11, 8, 255, 5).
pixel(11, 9, 255, 5).
pixel(11, 10, 241, 5).
pixel(11, 11, 254, 5).
pixel(11, 12, 101, 5).
pixel(11, 13, 2, 5).
pixel(11, 14, 165, 5).
pixel(11, 15, 255, 5).
pixel(11, 16, 255, 5).
pixel(11, 17, 255, 5).
pixel(11, 18, 255, 5).
pixel(11, 19, 255, 5).
pixel(11, 20, 255, 5).
pixel(11, 21, 255, 5).
pixel(11, 22, 255, 5).
pixel(11, 23, 255, 5).
pixel(11, 24, 255, 5).
pixel(11, 25, 255, 5).
pixel(11, 26, 255, 5).
pixel(11, 27, 255, 5).
pixel(11, 28, 255, 5).
pixel(12, 1, 255, 5).
pixel(12, 2, 255, 5).
pixel(12, 3, 255, 5).
pixel(12, 4, 255, 5).
pixel(12, 5, 255, 5).
pixel(12, 6, 255, 5).
pixel(12, 7, 255, 5).
pixel(12, 8, 255, 5).
pixel(12, 9, 255, 5).
pixel(12, 10, 255, 5).
pixel(12, 11, 255, 5).
pixel(12, 12, 116, 5).
pixel(12, 13, 2, 5).
pixel(12, 14, 65, 5).
pixel(12, 15, 253, 5).
pixel(12, 16, 255, 5).
pixel(12, 17, 255, 5).
pixel(12, 18, 255, 5).
pixel(12, 19, 255, 5).
pixel(12, 20, 255, 5).
pixel(12, 21, 255, 5).
pixel(12, 22, 255, 5).
pixel(12, 23, 255, 5).
pixel(12, 24, 255, 5).
pixel(12, 25, 255, 5).
pixel(12, 26, 255, 5).
pixel(12, 27, 255, 5).
pixel(12, 28, 255, 5).
pixel(13, 1, 255, 5).
pixel(13, 2, 255, 5).
pixel(13, 3, 255, 5).
pixel(13, 4, 255, 5).
pixel(13, 5, 255, 5).
pixel(13, 6, 255, 5).
pixel(13, 7, 255, 5).
pixel(13, 8, 255, 5).
pixel(13, 9, 255, 5).
pixel(13, 10, 255, 5).
pixel(13, 11, 255, 5).
pixel(13, 12, 244, 5).
pixel(13, 13, 65, 5).
pixel(13, 14, 2, 5).
pixel(13, 15, 185, 5).
pixel(13, 16, 255, 5).
pixel(13, 17, 255, 5).
pixel(13, 18, 255, 5).
pixel(13, 19, 255, 5).
pixel(13, 20, 255, 5).
pixel(13, 21, 255, 5).
pixel(13, 22, 255, 5).
pixel(13, 23, 255, 5).
pixel(13, 24, 255, 5).
pixel(13, 25, 255, 5).
pixel(13, 26, 255, 5).
pixel(13, 27, 255, 5).
pixel(13, 28, 255, 5).
pixel(14, 1, 255, 5).
pixel(14, 2, 255, 5).
pixel(14, 3, 255, 5).
pixel(14, 4, 255, 5).
pixel(14, 5, 255, 5).
pixel(14, 6, 255, 5).
pixel(14, 7, 255, 5).
pixel(14, 8, 255, 5).
pixel(14, 9, 255, 5).
pixel(14, 10, 255, 5).
pixel(14, 11, 255, 5).
pixel(14, 12, 255, 5).
pixel(14, 13, 220, 5).
pixel(14, 14, 14, 5).
pixel(14, 15, 30, 5).
pixel(14, 16, 95, 5).
pixel(14, 17, 147, 5).
pixel(14, 18, 254, 5).
pixel(14, 19, 255, 5).
pixel(14, 20, 255, 5).
pixel(14, 21, 255, 5).
pixel(14, 22, 255, 5).
pixel(14, 23, 255, 5).
pixel(14, 24, 255, 5).
pixel(14, 25, 255, 5).
pixel(14, 26, 255, 5).
pixel(14, 27, 255, 5).
pixel(14, 28, 255, 5).
pixel(15, 1, 255, 5).
pixel(15, 2, 255, 5).
pixel(15, 3, 255, 5).
pixel(15, 4, 255, 5).
pixel(15, 5, 255, 5).
pixel(15, 6, 255, 5).
pixel(15, 7, 255, 5).
pixel(15, 8, 255, 5).
pixel(15, 9, 255, 5).
pixel(15, 10, 255, 5).
pixel(15, 11, 255, 5).
pixel(15, 12, 255, 5).
pixel(15, 13, 255, 5).
pixel(15, 14, 174, 5).
pixel(15, 15, 15, 5).
pixel(15, 16, 2, 5).
pixel(15, 17, 2, 5).
pixel(15, 18, 136, 5).
pixel(15, 19, 230, 5).
pixel(15, 20, 255, 5).
pixel(15, 21, 255, 5).
pixel(15, 22, 255, 5).
pixel(15, 23, 255, 5).
pixel(15, 24, 255, 5).
pixel(15, 25, 255, 5).
pixel(15, 26, 255, 5).
pixel(15, 27, 255, 5).
pixel(15, 28, 255, 5).
pixel(16, 1, 255, 5).
pixel(16, 2, 255, 5).
pixel(16, 3, 255, 5).
pixel(16, 4, 255, 5).
pixel(16, 5, 255, 5).
pixel(16, 6, 255, 5).
pixel(16, 7, 255, 5).
pixel(16, 8, 255, 5).
pixel(16, 9, 255, 5).
pixel(16, 10, 255, 5).
pixel(16, 11, 255, 5).
pixel(16, 12, 255, 5).
pixel(16, 13, 255, 5).
pixel(16, 14, 255, 5).
pixel(16, 15, 210, 5).
pixel(16, 16, 69, 5).
pixel(16, 17, 2, 5).
pixel(16, 18, 2, 5).
pixel(16, 19, 105, 5).
pixel(16, 20, 228, 5).
pixel(16, 21, 255, 5).
pixel(16, 22, 255, 5).
pixel(16, 23, 255, 5).
pixel(16, 24, 255, 5).
pixel(16, 25, 255, 5).
pixel(16, 26, 255, 5).
pixel(16, 27, 255, 5).
pixel(16, 28, 255, 5).
pixel(17, 1, 255, 5).
pixel(17, 2, 255, 5).
pixel(17, 3, 255, 5).
pixel(17, 4, 255, 5).
pixel(17, 5, 255, 5).
pixel(17, 6, 255, 5).
pixel(17, 7, 255, 5).
pixel(17, 8, 255, 5).
pixel(17, 9, 255, 5).
pixel(17, 10, 255, 5).
pixel(17, 11, 255, 5).
pixel(17, 12, 255, 5).
pixel(17, 13, 255, 5).
pixel(17, 14, 255, 5).
pixel(17, 15, 255, 5).
pixel(17, 16, 239, 5).
pixel(17, 17, 162, 5).
pixel(17, 18, 3, 5).
pixel(17, 19, 2, 5).
pixel(17, 20, 68, 5).
pixel(17, 21, 255, 5).
pixel(17, 22, 255, 5).
pixel(17, 23, 255, 5).
pixel(17, 24, 255, 5).
pixel(17, 25, 255, 5).
pixel(17, 26, 255, 5).
pixel(17, 27, 255, 5).
pixel(17, 28, 255, 5).
pixel(18, 1, 255, 5).
pixel(18, 2, 255, 5).
pixel(18, 3, 255, 5).
pixel(18, 4, 255, 5).
pixel(18, 5, 255, 5).
pixel(18, 6, 255, 5).
pixel(18, 7, 255, 5).
pixel(18, 8, 255, 5).
pixel(18, 9, 255, 5).
pixel(18, 10, 255, 5).
pixel(18, 11, 255, 5).
pixel(18, 12, 255, 5).
pixel(18, 13, 255, 5).
pixel(18, 14, 255, 5).
pixel(18, 15, 255, 5).
pixel(18, 16, 255, 5).
pixel(18, 17, 255, 5).
pixel(18, 18, 6, 5).
pixel(18, 19, 2, 5).
pixel(18, 20, 6, 5).
pixel(18, 21, 191, 5).
pixel(18, 22, 255, 5).
pixel(18, 23, 255, 5).
pixel(18, 24, 255, 5).
pixel(18, 25, 255, 5).
pixel(18, 26, 255, 5).
pixel(18, 27, 255, 5).
pixel(18, 28, 255, 5).
pixel(19, 1, 255, 5).
pixel(19, 2, 255, 5).
pixel(19, 3, 255, 5).
pixel(19, 4, 255, 5).
pixel(19, 5, 255, 5).
pixel(19, 6, 255, 5).
pixel(19, 7, 255, 5).
pixel(19, 8, 255, 5).
pixel(19, 9, 255, 5).
pixel(19, 10, 255, 5).
pixel(19, 11, 255, 5).
pixel(19, 12, 255, 5).
pixel(19, 13, 255, 5).
pixel(19, 14, 255, 5).
pixel(19, 15, 209, 5).
pixel(19, 16, 125, 5).
pixel(19, 17, 72, 5).
pixel(19, 18, 2, 5).
pixel(19, 19, 2, 5).
pixel(19, 20, 48, 5).
pixel(19, 21, 253, 5).
pixel(19, 22, 255, 5).
pixel(19, 23, 255, 5).
pixel(19, 24, 255, 5).
pixel(19, 25, 255, 5).
pixel(19, 26, 255, 5).
pixel(19, 27, 255, 5).
pixel(19, 28, 255, 5).
pixel(20, 1, 255, 5).
pixel(20, 2, 255, 5).
pixel(20, 3, 255, 5).
pixel(20, 4, 255, 5).
pixel(20, 5, 255, 5).
pixel(20, 6, 255, 5).
pixel(20, 7, 255, 5).
pixel(20, 8, 255, 5).
pixel(20, 9, 255, 5).
pixel(20, 10, 255, 5).
pixel(20, 11, 255, 5).
pixel(20, 12, 255, 5).
pixel(20, 13, 216, 5).
pixel(20, 14, 107, 5).
pixel(20, 15, 26, 5).
pixel(20, 16, 2, 5).
pixel(20, 17, 2, 5).
pixel(20, 18, 2, 5).
pixel(20, 19, 5, 5).
pixel(20, 20, 73, 5).
pixel(20, 21, 255, 5).
pixel(20, 22, 255, 5).
pixel(20, 23, 255, 5).
pixel(20, 24, 255, 5).
pixel(20, 25, 255, 5).
pixel(20, 26, 255, 5).
pixel(20, 27, 255, 5).
pixel(20, 28, 255, 5).
pixel(21, 1, 255, 5).
pixel(21, 2, 255, 5).
pixel(21, 3, 255, 5).
pixel(21, 4, 255, 5).
pixel(21, 5, 255, 5).
pixel(21, 6, 255, 5).
pixel(21, 7, 255, 5).
pixel(21, 8, 255, 5).
pixel(21, 9, 255, 5).
pixel(21, 10, 255, 5).
pixel(21, 11, 231, 5).
pixel(21, 12, 141, 5).
pixel(21, 13, 34, 5).
pixel(21, 14, 2, 5).
pixel(21, 15, 2, 5).
pixel(21, 16, 2, 5).
pixel(21, 17, 2, 5).
pixel(21, 18, 54, 5).
pixel(21, 19, 177, 5).
pixel(21, 20, 255, 5).
pixel(21, 21, 255, 5).
pixel(21, 22, 255, 5).
pixel(21, 23, 255, 5).
pixel(21, 24, 255, 5).
pixel(21, 25, 255, 5).
pixel(21, 26, 255, 5).
pixel(21, 27, 255, 5).
pixel(21, 28, 255, 5).
pixel(22, 1, 255, 5).
pixel(22, 2, 255, 5).
pixel(22, 3, 255, 5).
pixel(22, 4, 255, 5).
pixel(22, 5, 255, 5).
pixel(22, 6, 255, 5).
pixel(22, 7, 255, 5).
pixel(22, 8, 255, 5).
pixel(22, 9, 232, 5).
pixel(22, 10, 189, 5).
pixel(22, 11, 42, 5).
pixel(22, 12, 2, 5).
pixel(22, 13, 2, 5).
pixel(22, 14, 2, 5).
pixel(22, 15, 2, 5).
pixel(22, 16, 57, 5).
pixel(22, 17, 174, 5).
pixel(22, 18, 253, 5).
pixel(22, 19, 255, 5).
pixel(22, 20, 255, 5).
pixel(22, 21, 255, 5).
pixel(22, 22, 255, 5).
pixel(22, 23, 255, 5).
pixel(22, 24, 255, 5).
pixel(22, 25, 255, 5).
pixel(22, 26, 255, 5).
pixel(22, 27, 255, 5).
pixel(22, 28, 255, 5).
pixel(23, 1, 255, 5).
pixel(23, 2, 255, 5).
pixel(23, 3, 255, 5).
pixel(23, 4, 255, 5).
pixel(23, 5, 255, 5).
pixel(23, 6, 255, 5).
pixel(23, 7, 237, 5).
pixel(23, 8, 84, 5).
pixel(23, 9, 36, 5).
pixel(23, 10, 2, 5).
pixel(23, 11, 2, 5).
pixel(23, 12, 2, 5).
pixel(23, 13, 2, 5).
pixel(23, 14, 60, 5).
pixel(23, 15, 175, 5).
pixel(23, 16, 246, 5).
pixel(23, 17, 255, 5).
pixel(23, 18, 255, 5).
pixel(23, 19, 255, 5).
pixel(23, 20, 255, 5).
pixel(23, 21, 255, 5).
pixel(23, 22, 255, 5).
pixel(23, 23, 255, 5).
pixel(23, 24, 255, 5).
pixel(23, 25, 255, 5).
pixel(23, 26, 255, 5).
pixel(23, 27, 255, 5).
pixel(23, 28, 255, 5).
pixel(24, 1, 255, 5).
pixel(24, 2, 255, 5).
pixel(24, 3, 255, 5).
pixel(24, 4, 255, 5).
pixel(24, 5, 200, 5).
pixel(24, 6, 83, 5).
pixel(24, 7, 29, 5).
pixel(24, 8, 2, 5).
pixel(24, 9, 2, 5).
pixel(24, 10, 2, 5).
pixel(24, 11, 2, 5).
pixel(24, 12, 11, 5).
pixel(24, 13, 122, 5).
pixel(24, 14, 244, 5).
pixel(24, 15, 255, 5).
pixel(24, 16, 255, 5).
pixel(24, 17, 255, 5).
pixel(24, 18, 255, 5).
pixel(24, 19, 255, 5).
pixel(24, 20, 255, 5).
pixel(24, 21, 255, 5).
pixel(24, 22, 255, 5).
pixel(24, 23, 255, 5).
pixel(24, 24, 255, 5).
pixel(24, 25, 255, 5).
pixel(24, 26, 255, 5).
pixel(24, 27, 255, 5).
pixel(24, 28, 255, 5).
pixel(25, 1, 255, 5).
pixel(25, 2, 255, 5).
pixel(25, 3, 255, 5).
pixel(25, 4, 255, 5).
pixel(25, 5, 119, 5).
pixel(25, 6, 2, 5).
pixel(25, 7, 2, 5).
pixel(25, 8, 2, 5).
pixel(25, 9, 43, 5).
pixel(25, 10, 120, 5).
pixel(25, 11, 123, 5).
pixel(25, 12, 239, 5).
pixel(25, 13, 255, 5).
pixel(25, 14, 255, 5).
pixel(25, 15, 255, 5).
pixel(25, 16, 255, 5).
pixel(25, 17, 255, 5).
pixel(25, 18, 255, 5).
pixel(25, 19, 255, 5).
pixel(25, 20, 255, 5).
pixel(25, 21, 255, 5).
pixel(25, 22, 255, 5).
pixel(25, 23, 255, 5).
pixel(25, 24, 255, 5).
pixel(25, 25, 255, 5).
pixel(25, 26, 255, 5).
pixel(25, 27, 255, 5).
pixel(25, 28, 255, 5).
pixel(26, 1, 255, 5).
pixel(26, 2, 255, 5).
pixel(26, 3, 255, 5).
pixel(26, 4, 255, 5).
pixel(26, 5, 255, 5).
pixel(26, 6, 255, 5).
pixel(26, 7, 255, 5).
pixel(26, 8, 255, 5).
pixel(26, 9, 255, 5).
pixel(26, 10, 255, 5).
pixel(26, 11, 255, 5).
pixel(26, 12, 255, 5).
pixel(26, 13, 255, 5).
pixel(26, 14, 255, 5).
pixel(26, 15, 255, 5).
pixel(26, 16, 255, 5).
pixel(26, 17, 255, 5).
pixel(26, 18, 255, 5).
pixel(26, 19, 255, 5).
pixel(26, 20, 255, 5).
pixel(26, 21, 255, 5).
pixel(26, 22, 255, 5).
pixel(26, 23, 255, 5).
pixel(26, 24, 255, 5).
pixel(26, 25, 255, 5).
pixel(26, 26, 255, 5).
pixel(26, 27, 255, 5).
pixel(26, 28, 255, 5).
pixel(27, 1, 255, 5).
pixel(27, 2, 255, 5).
pixel(27, 3, 255, 5).
pixel(27, 4, 255, 5).
pixel(27, 5, 255, 5).
pixel(27, 6, 255, 5).
pixel(27, 7, 255, 5).
pixel(27, 8, 255, 5).
pixel(27, 9, 255, 5).
pixel(27, 10, 255, 5).
pixel(27, 11, 255, 5).
pixel(27, 12, 255, 5).
pixel(27, 13, 255, 5).
pixel(27, 14, 255, 5).
pixel(27, 15, 255, 5).
pixel(27, 16, 255, 5).
pixel(27, 17, 255, 5).
pixel(27, 18, 255, 5).
pixel(27, 19, 255, 5).
pixel(27, 20, 255, 5).
pixel(27, 21, 255, 5).
pixel(27, 22, 255, 5).
pixel(27, 23, 255, 5).
pixel(27, 24, 255, 5).
pixel(27, 25, 255, 5).
pixel(27, 26, 255, 5).
pixel(27, 27, 255, 5).
pixel(27, 28, 255, 5).
pixel(28, 1, 255, 5).
pixel(28, 2, 255, 5).
pixel(28, 3, 255, 5).
pixel(28, 4, 255, 5).
pixel(28, 5, 255, 5).
pixel(28, 6, 255, 5).
pixel(28, 7, 255, 5).
pixel(28, 8, 255, 5).
pixel(28, 9, 255, 5).
pixel(28, 10, 255, 5).
pixel(28, 11, 255, 5).
pixel(28, 12, 255, 5).
pixel(28, 13, 255, 5).
pixel(28, 14, 255, 5).
pixel(28, 15, 255, 5).
pixel(28, 16, 255, 5).
pixel(28, 17, 255, 5).
pixel(28, 18, 255, 5).
pixel(28, 19, 255, 5).
pixel(28, 20, 255, 5).
pixel(28, 21, 255, 5).
pixel(28, 22, 255, 5).
pixel(28, 23, 255, 5).
pixel(28, 24, 255, 5).
pixel(28, 25, 255, 5).
pixel(28, 26, 255, 5).
pixel(28, 27, 255, 5).
pixel(28, 28, 255, 5).
