pixel(1, 1, 0, 5).
pixel(2, 1, 0, 5).
pixel(3, 1, 0, 5).
pixel(4, 1, 0, 5).
pixel(5, 1, 0, 5).
pixel(6, 1, 0, 5).
pixel(7, 1, 0, 5).
pixel(8, 1, 0, 5).
pixel(9, 1, 0, 5).
pixel(10, 1, 0, 5).
pixel(11, 1, 0, 5).
pixel(12, 1, 0, 5).
pixel(13, 1, 0, 5).
pixel(14, 1, 0, 5).
pixel(15, 1, 0, 5).
pixel(16, 1, 0, 5).
pixel(17, 1, 0, 5).
pixel(18, 1, 0, 5).
pixel(19, 1, 0, 5).
pixel(20, 1, 0, 5).
pixel(21, 1, 0, 5).
pixel(22, 1, 0, 5).
pixel(23, 1, 0, 5).
pixel(24, 1, 0, 5).
pixel(25, 1, 0, 5).
pixel(26, 1, 0, 5).
pixel(27, 1, 0, 5).
pixel(28, 1, 0, 5).
pixel(1, 2, 0, 5).
pixel(2, 2, 0, 5).
pixel(3, 2, 0, 5).
pixel(4, 2, 0, 5).
pixel(5, 2, 0, 5).
pixel(6, 2, 0, 5).
pixel(7, 2, 0, 5).
pixel(8, 2, 0, 5).
pixel(9, 2, 0, 5).
pixel(10, 2, 0, 5).
pixel(11, 2, 0, 5).
pixel(12, 2, 0, 5).
pixel(13, 2, 0, 5).
pixel(14, 2, 0, 5).
pixel(15, 2, 0, 5).
pixel(16, 2, 0, 5).
pixel(17, 2, 0, 5).
pixel(18, 2, 0, 5).
pixel(19, 2, 0, 5).
pixel(20, 2, 0, 5).
pixel(21, 2, 0, 5).
pixel(22, 2, 0, 5).
pixel(23, 2, 0, 5).
pixel(24, 2, 0, 5).
pixel(25, 2, 0, 5).
pixel(26, 2, 0, 5).
pixel(27, 2, 0, 5).
pixel(28, 2, 0, 5).
pixel(1, 3, 0, 5).
pixel(2, 3, 0, 5).
pixel(3, 3, 0, 5).
pixel(4, 3, 0, 5).
pixel(5, 3, 0, 5).
pixel(6, 3, 0, 5).
pixel(7, 3, 0, 5).
pixel(8, 3, 0, 5).
pixel(9, 3, 0, 5).
pixel(10, 3, 0, 5).
pixel(11, 3, 0, 5).
pixel(12, 3, 0, 5).
pixel(13, 3, 0, 5).
pixel(14, 3, 0, 5).
pixel(15, 3, 0, 5).
pixel(16, 3, 0, 5).
pixel(17, 3, 0, 5).
pixel(18, 3, 0, 5).
pixel(19, 3, 0, 5).
pixel(20, 3, 0, 5).
pixel(21, 3, 0, 5).
pixel(22, 3, 0, 5).
pixel(23, 3, 0, 5).
pixel(24, 3, 0, 5).
pixel(25, 3, 0, 5).
pixel(26, 3, 0, 5).
pixel(27, 3, 0, 5).
pixel(28, 3, 0, 5).
pixel(1, 4, 0, 5).
pixel(2, 4, 0, 5).
pixel(3, 4, 0, 5).
pixel(4, 4, 0, 5).
pixel(5, 4, 0, 5).
pixel(6, 4, 0, 5).
pixel(7, 4, 0, 5).
pixel(8, 4, 0, 5).
pixel(9, 4, 0, 5).
pixel(10, 4, 0, 5).
pixel(11, 4, 0, 5).
pixel(12, 4, 0, 5).
pixel(13, 4, 0, 5).
pixel(14, 4, 0, 5).
pixel(15, 4, 0, 5).
pixel(16, 4, 0, 5).
pixel(17, 4, 0, 5).
pixel(18, 4, 0, 5).
pixel(19, 4, 0, 5).
pixel(20, 4, 0, 5).
pixel(21, 4, 0, 5).
pixel(22, 4, 0, 5).
pixel(23, 4, 0, 5).
pixel(24, 4, 0, 5).
pixel(25, 4, 0, 5).
pixel(26, 4, 0, 5).
pixel(27, 4, 0, 5).
pixel(28, 4, 0, 5).
pixel(1, 5, 0, 5).
pixel(2, 5, 0, 5).
pixel(3, 5, 0, 5).
pixel(4, 5, 0, 5).
pixel(5, 5, 0, 5).
pixel(6, 5, 0, 5).
pixel(7, 5, 0, 5).
pixel(8, 5, 0, 5).
pixel(9, 5, 0, 5).
pixel(10, 5, 0, 5).
pixel(11, 5, 0, 5).
pixel(12, 5, 0, 5).
pixel(13, 5, 0, 5).
pixel(14, 5, 0, 5).
pixel(15, 5, 0, 5).
pixel(16, 5, 0, 5).
pixel(17, 5, 0, 5).
pixel(18, 5, 0, 5).
pixel(19, 5, 0, 5).
pixel(20, 5, 0, 5).
pixel(21, 5, 0, 5).
pixel(22, 5, 0, 5).
pixel(23, 5, 0, 5).
pixel(24, 5, 0, 5).
pixel(25, 5, 0, 5).
pixel(26, 5, 0, 5).
pixel(27, 5, 0, 5).
pixel(28, 5, 0, 5).
pixel(1, 6, 0, 5).
pixel(2, 6, 0, 5).
pixel(3, 6, 0, 5).
pixel(4, 6, 0, 5).
pixel(5, 6, 0, 5).
pixel(6, 6, 0, 5).
pixel(7, 6, 0, 5).
pixel(8, 6, 0, 5).
pixel(9, 6, 0, 5).
pixel(10, 6, 0, 5).
pixel(11, 6, 0, 5).
pixel(12, 6, 0, 5).
pixel(13, 6, 3, 5).
pixel(14, 6, 18, 5).
pixel(15, 6, 18, 5).
pixel(16, 6, 18, 5).
pixel(17, 6, 126, 5).
pixel(18, 6, 136, 5).
pixel(19, 6, 175, 5).
pixel(20, 6, 26, 5).
pixel(21, 6, 166, 5).
pixel(22, 6, 255, 5).
pixel(23, 6, 247, 5).
pixel(24, 6, 127, 5).
pixel(25, 6, 0, 5).
pixel(26, 6, 0, 5).
pixel(27, 6, 0, 5).
pixel(28, 6, 0, 5).
pixel(1, 7, 0, 5).
pixel(2, 7, 0, 5).
pixel(3, 7, 0, 5).
pixel(4, 7, 0, 5).
pixel(5, 7, 0, 5).
pixel(6, 7, 0, 5).
pixel(7, 7, 0, 5).
pixel(8, 7, 0, 5).
pixel(9, 7, 30, 5).
pixel(10, 7, 36, 5).
pixel(11, 7, 94, 5).
pixel(12, 7, 154, 5).
pixel(13, 7, 170, 5).
pixel(14, 7, 253, 5).
pixel(15, 7, 253, 5).
pixel(16, 7, 253, 5).
pixel(17, 7, 253, 5).
pixel(18, 7, 253, 5).
pixel(19, 7, 225, 5).
pixel(20, 7, 172, 5).
pixel(21, 7, 253, 5).
pixel(22, 7, 242, 5).
pixel(23, 7, 195, 5).
pixel(24, 7, 64, 5).
pixel(25, 7, 0, 5).
pixel(26, 7, 0, 5).
pixel(27, 7, 0, 5).
pixel(28, 7, 0, 5).
pixel(1, 8, 0, 5).
pixel(2, 8, 0, 5).
pixel(3, 8, 0, 5).
pixel(4, 8, 0, 5).
pixel(5, 8, 0, 5).
pixel(6, 8, 0, 5).
pixel(7, 8, 0, 5).
pixel(8, 8, 49, 5).
pixel(9, 8, 238, 5).
pixel(10, 8, 253, 5).
pixel(11, 8, 253, 5).
pixel(12, 8, 253, 5).
pixel(13, 8, 253, 5).
pixel(14, 8, 253, 5).
pixel(15, 8, 253, 5).
pixel(16, 8, 253, 5).
pixel(17, 8, 253, 5).
pixel(18, 8, 251, 5).
pixel(19, 8, 93, 5).
pixel(20, 8, 82, 5).
pixel(21, 8, 82, 5).
pixel(22, 8, 56, 5).
pixel(23, 8, 39, 5).
pixel(24, 8, 0, 5).
pixel(25, 8, 0, 5).
pixel(26, 8, 0, 5).
pixel(27, 8, 0, 5).
pixel(28, 8, 0, 5).
pixel(1, 9, 0, 5).
pixel(2, 9, 0, 5).
pixel(3, 9, 0, 5).
pixel(4, 9, 0, 5).
pixel(5, 9, 0, 5).
pixel(6, 9, 0, 5).
pixel(7, 9, 0, 5).
pixel(8, 9, 18, 5).
pixel(9, 9, 219, 5).
pixel(10, 9, 253, 5).
pixel(11, 9, 253, 5).
pixel(12, 9, 253, 5).
pixel(13, 9, 253, 5).
pixel(14, 9, 253, 5).
pixel(15, 9, 198, 5).
pixel(16, 9, 182, 5).
pixel(17, 9, 247, 5).
pixel(18, 9, 241, 5).
pixel(19, 9, 0, 5).
pixel(20, 9, 0, 5).
pixel(21, 9, 0, 5).
pixel(22, 9, 0, 5).
pixel(23, 9, 0, 5).
pixel(24, 9, 0, 5).
pixel(25, 9, 0, 5).
pixel(26, 9, 0, 5).
pixel(27, 9, 0, 5).
pixel(28, 9, 0, 5).
pixel(1, 10, 0, 5).
pixel(2, 10, 0, 5).
pixel(3, 10, 0, 5).
pixel(4, 10, 0, 5).
pixel(5, 10, 0, 5).
pixel(6, 10, 0, 5).
pixel(7, 10, 0, 5).
pixel(8, 10, 0, 5).
pixel(9, 10, 80, 5).
pixel(10, 10, 156, 5).
pixel(11, 10, 107, 5).
pixel(12, 10, 253, 5).
pixel(13, 10, 253, 5).
pixel(14, 10, 205, 5).
pixel(15, 10, 11, 5).
pixel(16, 10, 0, 5).
pixel(17, 10, 43, 5).
pixel(18, 10, 154, 5).
pixel(19, 10, 0, 5).
pixel(20, 10, 0, 5).
pixel(21, 10, 0, 5).
pixel(22, 10, 0, 5).
pixel(23, 10, 0, 5).
pixel(24, 10, 0, 5).
pixel(25, 10, 0, 5).
pixel(26, 10, 0, 5).
pixel(27, 10, 0, 5).
pixel(28, 10, 0, 5).
pixel(1, 11, 0, 5).
pixel(2, 11, 0, 5).
pixel(3, 11, 0, 5).
pixel(4, 11, 0, 5).
pixel(5, 11, 0, 5).
pixel(6, 11, 0, 5).
pixel(7, 11, 0, 5).
pixel(8, 11, 0, 5).
pixel(9, 11, 0, 5).
pixel(10, 11, 14, 5).
pixel(11, 11, 1, 5).
pixel(12, 11, 154, 5).
pixel(13, 11, 253, 5).
pixel(14, 11, 90, 5).
pixel(15, 11, 0, 5).
pixel(16, 11, 0, 5).
pixel(17, 11, 0, 5).
pixel(18, 11, 0, 5).
pixel(19, 11, 0, 5).
pixel(20, 11, 0, 5).
pixel(21, 11, 0, 5).
pixel(22, 11, 0, 5).
pixel(23, 11, 0, 5).
pixel(24, 11, 0, 5).
pixel(25, 11, 0, 5).
pixel(26, 11, 0, 5).
pixel(27, 11, 0, 5).
pixel(28, 11, 0, 5).
pixel(1, 12, 0, 5).
pixel(2, 12, 0, 5).
pixel(3, 12, 0, 5).
pixel(4, 12, 0, 5).
pixel(5, 12, 0, 5).
pixel(6, 12, 0, 5).
pixel(7, 12, 0, 5).
pixel(8, 12, 0, 5).
pixel(9, 12, 0, 5).
pixel(10, 12, 0, 5).
pixel(11, 12, 0, 5).
pixel(12, 12, 139, 5).
pixel(13, 12, 253, 5).
pixel(14, 12, 190, 5).
pixel(15, 12, 2, 5).
pixel(16, 12, 0, 5).
pixel(17, 12, 0, 5).
pixel(18, 12, 0, 5).
pixel(19, 12, 0, 5).
pixel(20, 12, 0, 5).
pixel(21, 12, 0, 5).
pixel(22, 12, 0, 5).
pixel(23, 12, 0, 5).
pixel(24, 12, 0, 5).
pixel(25, 12, 0, 5).
pixel(26, 12, 0, 5).
pixel(27, 12, 0, 5).
pixel(28, 12, 0, 5).
pixel(1, 13, 0, 5).
pixel(2, 13, 0, 5).
pixel(3, 13, 0, 5).
pixel(4, 13, 0, 5).
pixel(5, 13, 0, 5).
pixel(6, 13, 0, 5).
pixel(7, 13, 0, 5).
pixel(8, 13, 0, 5).
pixel(9, 13, 0, 5).
pixel(10, 13, 0, 5).
pixel(11, 13, 0, 5).
pixel(12, 13, 11, 5).
pixel(13, 13, 190, 5).
pixel(14, 13, 253, 5).
pixel(15, 13, 70, 5).
pixel(16, 13, 0, 5).
pixel(17, 13, 0, 5).
pixel(18, 13, 0, 5).
pixel(19, 13, 0, 5).
pixel(20, 13, 0, 5).
pixel(21, 13, 0, 5).
pixel(22, 13, 0, 5).
pixel(23, 13, 0, 5).
pixel(24, 13, 0, 5).
pixel(25, 13, 0, 5).
pixel(26, 13, 0, 5).
pixel(27, 13, 0, 5).
pixel(28, 13, 0, 5).
pixel(1, 14, 0, 5).
pixel(2, 14, 0, 5).
pixel(3, 14, 0, 5).
pixel(4, 14, 0, 5).
pixel(5, 14, 0, 5).
pixel(6, 14, 0, 5).
pixel(7, 14, 0, 5).
pixel(8, 14, 0, 5).
pixel(9, 14, 0, 5).
pixel(10, 14, 0, 5).
pixel(11, 14, 0, 5).
pixel(12, 14, 0, 5).
pixel(13, 14, 35, 5).
pixel(14, 14, 241, 5).
pixel(15, 14, 225, 5).
pixel(16, 14, 160, 5).
pixel(17, 14, 108, 5).
pixel(18, 14, 1, 5).
pixel(19, 14, 0, 5).
pixel(20, 14, 0, 5).
pixel(21, 14, 0, 5).
pixel(22, 14, 0, 5).
pixel(23, 14, 0, 5).
pixel(24, 14, 0, 5).
pixel(25, 14, 0, 5).
pixel(26, 14, 0, 5).
pixel(27, 14, 0, 5).
pixel(28, 14, 0, 5).
pixel(1, 15, 0, 5).
pixel(2, 15, 0, 5).
pixel(3, 15, 0, 5).
pixel(4, 15, 0, 5).
pixel(5, 15, 0, 5).
pixel(6, 15, 0, 5).
pixel(7, 15, 0, 5).
pixel(8, 15, 0, 5).
pixel(9, 15, 0, 5).
pixel(10, 15, 0, 5).
pixel(11, 15, 0, 5).
pixel(12, 15, 0, 5).
pixel(13, 15, 0, 5).
pixel(14, 15, 81, 5).
pixel(15, 15, 240, 5).
pixel(16, 15, 253, 5).
pixel(17, 15, 253, 5).
pixel(18, 15, 119, 5).
pixel(19, 15, 25, 5).
pixel(20, 15, 0, 5).
pixel(21, 15, 0, 5).
pixel(22, 15, 0, 5).
pixel(23, 15, 0, 5).
pixel(24, 15, 0, 5).
pixel(25, 15, 0, 5).
pixel(26, 15, 0, 5).
pixel(27, 15, 0, 5).
pixel(28, 15, 0, 5).
pixel(1, 16, 0, 5).
pixel(2, 16, 0, 5).
pixel(3, 16, 0, 5).
pixel(4, 16, 0, 5).
pixel(5, 16, 0, 5).
pixel(6, 16, 0, 5).
pixel(7, 16, 0, 5).
pixel(8, 16, 0, 5).
pixel(9, 16, 0, 5).
pixel(10, 16, 0, 5).
pixel(11, 16, 0, 5).
pixel(12, 16, 0, 5).
pixel(13, 16, 0, 5).
pixel(14, 16, 0, 5).
pixel(15, 16, 45, 5).
pixel(16, 16, 186, 5).
pixel(17, 16, 253, 5).
pixel(18, 16, 253, 5).
pixel(19, 16, 150, 5).
pixel(20, 16, 27, 5).
pixel(21, 16, 0, 5).
pixel(22, 16, 0, 5).
pixel(23, 16, 0, 5).
pixel(24, 16, 0, 5).
pixel(25, 16, 0, 5).
pixel(26, 16, 0, 5).
pixel(27, 16, 0, 5).
pixel(28, 16, 0, 5).
pixel(1, 17, 0, 5).
pixel(2, 17, 0, 5).
pixel(3, 17, 0, 5).
pixel(4, 17, 0, 5).
pixel(5, 17, 0, 5).
pixel(6, 17, 0, 5).
pixel(7, 17, 0, 5).
pixel(8, 17, 0, 5).
pixel(9, 17, 0, 5).
pixel(10, 17, 0, 5).
pixel(11, 17, 0, 5).
pixel(12, 17, 0, 5).
pixel(13, 17, 0, 5).
pixel(14, 17, 0, 5).
pixel(15, 17, 0, 5).
pixel(16, 17, 16, 5).
pixel(17, 17, 93, 5).
pixel(18, 17, 252, 5).
pixel(19, 17, 253, 5).
pixel(20, 17, 187, 5).
pixel(21, 17, 0, 5).
pixel(22, 17, 0, 5).
pixel(23, 17, 0, 5).
pixel(24, 17, 0, 5).
pixel(25, 17, 0, 5).
pixel(26, 17, 0, 5).
pixel(27, 17, 0, 5).
pixel(28, 17, 0, 5).
pixel(1, 18, 0, 5).
pixel(2, 18, 0, 5).
pixel(3, 18, 0, 5).
pixel(4, 18, 0, 5).
pixel(5, 18, 0, 5).
pixel(6, 18, 0, 5).
pixel(7, 18, 0, 5).
pixel(8, 18, 0, 5).
pixel(9, 18, 0, 5).
pixel(10, 18, 0, 5).
pixel(11, 18, 0, 5).
pixel(12, 18, 0, 5).
pixel(13, 18, 0, 5).
pixel(14, 18, 0, 5).
pixel(15, 18, 0, 5).
pixel(16, 18, 0, 5).
pixel(17, 18, 0, 5).
pixel(18, 18, 249, 5).
pixel(19, 18, 253, 5).
pixel(20, 18, 249, 5).
pixel(21, 18, 64, 5).
pixel(22, 18, 0, 5).
pixel(23, 18, 0, 5).
pixel(24, 18, 0, 5).
pixel(25, 18, 0, 5).
pixel(26, 18, 0, 5).
pixel(27, 18, 0, 5).
pixel(28, 18, 0, 5).
pixel(1, 19, 0, 5).
pixel(2, 19, 0, 5).
pixel(3, 19, 0, 5).
pixel(4, 19, 0, 5).
pixel(5, 19, 0, 5).
pixel(6, 19, 0, 5).
pixel(7, 19, 0, 5).
pixel(8, 19, 0, 5).
pixel(9, 19, 0, 5).
pixel(10, 19, 0, 5).
pixel(11, 19, 0, 5).
pixel(12, 19, 0, 5).
pixel(13, 19, 0, 5).
pixel(14, 19, 0, 5).
pixel(15, 19, 46, 5).
pixel(16, 19, 130, 5).
pixel(17, 19, 183, 5).
pixel(18, 19, 253, 5).
pixel(19, 19, 253, 5).
pixel(20, 19, 207, 5).
pixel(21, 19, 2, 5).
pixel(22, 19, 0, 5).
pixel(23, 19, 0, 5).
pixel(24, 19, 0, 5).
pixel(25, 19, 0, 5).
pixel(26, 19, 0, 5).
pixel(27, 19, 0, 5).
pixel(28, 19, 0, 5).
pixel(1, 20, 0, 5).
pixel(2, 20, 0, 5).
pixel(3, 20, 0, 5).
pixel(4, 20, 0, 5).
pixel(5, 20, 0, 5).
pixel(6, 20, 0, 5).
pixel(7, 20, 0, 5).
pixel(8, 20, 0, 5).
pixel(9, 20, 0, 5).
pixel(10, 20, 0, 5).
pixel(11, 20, 0, 5).
pixel(12, 20, 0, 5).
pixel(13, 20, 39, 5).
pixel(14, 20, 148, 5).
pixel(15, 20, 229, 5).
pixel(16, 20, 253, 5).
pixel(17, 20, 253, 5).
pixel(18, 20, 253, 5).
pixel(19, 20, 250, 5).
pixel(20, 20, 182, 5).
pixel(21, 20, 0, 5).
pixel(22, 20, 0, 5).
pixel(23, 20, 0, 5).
pixel(24, 20, 0, 5).
pixel(25, 20, 0, 5).
pixel(26, 20, 0, 5).
pixel(27, 20, 0, 5).
pixel(28, 20, 0, 5).
pixel(1, 21, 0, 5).
pixel(2, 21, 0, 5).
pixel(3, 21, 0, 5).
pixel(4, 21, 0, 5).
pixel(5, 21, 0, 5).
pixel(6, 21, 0, 5).
pixel(7, 21, 0, 5).
pixel(8, 21, 0, 5).
pixel(9, 21, 0, 5).
pixel(10, 21, 0, 5).
pixel(11, 21, 24, 5).
pixel(12, 21, 114, 5).
pixel(13, 21, 221, 5).
pixel(14, 21, 253, 5).
pixel(15, 21, 253, 5).
pixel(16, 21, 253, 5).
pixel(17, 21, 253, 5).
pixel(18, 21, 201, 5).
pixel(19, 21, 78, 5).
pixel(20, 21, 0, 5).
pixel(21, 21, 0, 5).
pixel(22, 21, 0, 5).
pixel(23, 21, 0, 5).
pixel(24, 21, 0, 5).
pixel(25, 21, 0, 5).
pixel(26, 21, 0, 5).
pixel(27, 21, 0, 5).
pixel(28, 21, 0, 5).
pixel(1, 22, 0, 5).
pixel(2, 22, 0, 5).
pixel(3, 22, 0, 5).
pixel(4, 22, 0, 5).
pixel(5, 22, 0, 5).
pixel(6, 22, 0, 5).
pixel(7, 22, 0, 5).
pixel(8, 22, 0, 5).
pixel(9, 22, 23, 5).
pixel(10, 22, 66, 5).
pixel(11, 22, 213, 5).
pixel(12, 22, 253, 5).
pixel(13, 22, 253, 5).
pixel(14, 22, 253, 5).
pixel(15, 22, 253, 5).
pixel(16, 22, 198, 5).
pixel(17, 22, 81, 5).
pixel(18, 22, 2, 5).
pixel(19, 22, 0, 5).
pixel(20, 22, 0, 5).
pixel(21, 22, 0, 5).
pixel(22, 22, 0, 5).
pixel(23, 22, 0, 5).
pixel(24, 22, 0, 5).
pixel(25, 22, 0, 5).
pixel(26, 22, 0, 5).
pixel(27, 22, 0, 5).
pixel(28, 22, 0, 5).
pixel(1, 23, 0, 5).
pixel(2, 23, 0, 5).
pixel(3, 23, 0, 5).
pixel(4, 23, 0, 5).
pixel(5, 23, 0, 5).
pixel(6, 23, 0, 5).
pixel(7, 23, 18, 5).
pixel(8, 23, 171, 5).
pixel(9, 23, 219, 5).
pixel(10, 23, 253, 5).
pixel(11, 23, 253, 5).
pixel(12, 23, 253, 5).
pixel(13, 23, 253, 5).
pixel(14, 23, 195, 5).
pixel(15, 23, 80, 5).
pixel(16, 23, 9, 5).
pixel(17, 23, 0, 5).
pixel(18, 23, 0, 5).
pixel(19, 23, 0, 5).
pixel(20, 23, 0, 5).
pixel(21, 23, 0, 5).
pixel(22, 23, 0, 5).
pixel(23, 23, 0, 5).
pixel(24, 23, 0, 5).
pixel(25, 23, 0, 5).
pixel(26, 23, 0, 5).
pixel(27, 23, 0, 5).
pixel(28, 23, 0, 5).
pixel(1, 24, 0, 5).
pixel(2, 24, 0, 5).
pixel(3, 24, 0, 5).
pixel(4, 24, 0, 5).
pixel(5, 24, 55, 5).
pixel(6, 24, 172, 5).
pixel(7, 24, 226, 5).
pixel(8, 24, 253, 5).
pixel(9, 24, 253, 5).
pixel(10, 24, 253, 5).
pixel(11, 24, 253, 5).
pixel(12, 24, 244, 5).
pixel(13, 24, 133, 5).
pixel(14, 24, 11, 5).
pixel(15, 24, 0, 5).
pixel(16, 24, 0, 5).
pixel(17, 24, 0, 5).
pixel(18, 24, 0, 5).
pixel(19, 24, 0, 5).
pixel(20, 24, 0, 5).
pixel(21, 24, 0, 5).
pixel(22, 24, 0, 5).
pixel(23, 24, 0, 5).
pixel(24, 24, 0, 5).
pixel(25, 24, 0, 5).
pixel(26, 24, 0, 5).
pixel(27, 24, 0, 5).
pixel(28, 24, 0, 5).
pixel(1, 25, 0, 5).
pixel(2, 25, 0, 5).
pixel(3, 25, 0, 5).
pixel(4, 25, 0, 5).
pixel(5, 25, 136, 5).
pixel(6, 25, 253, 5).
pixel(7, 25, 253, 5).
pixel(8, 25, 253, 5).
pixel(9, 25, 212, 5).
pixel(10, 25, 135, 5).
pixel(11, 25, 132, 5).
pixel(12, 25, 16, 5).
pixel(13, 25, 0, 5).
pixel(14, 25, 0, 5).
pixel(15, 25, 0, 5).
pixel(16, 25, 0, 5).
pixel(17, 25, 0, 5).
pixel(18, 25, 0, 5).
pixel(19, 25, 0, 5).
pixel(20, 25, 0, 5).
pixel(21, 25, 0, 5).
pixel(22, 25, 0, 5).
pixel(23, 25, 0, 5).
pixel(24, 25, 0, 5).
pixel(25, 25, 0, 5).
pixel(26, 25, 0, 5).
pixel(27, 25, 0, 5).
pixel(28, 25, 0, 5).
pixel(1, 26, 0, 5).
pixel(2, 26, 0, 5).
pixel(3, 26, 0, 5).
pixel(4, 26, 0, 5).
pixel(5, 26, 0, 5).
pixel(6, 26, 0, 5).
pixel(7, 26, 0, 5).
pixel(8, 26, 0, 5).
pixel(9, 26, 0, 5).
pixel(10, 26, 0, 5).
pixel(11, 26, 0, 5).
pixel(12, 26, 0, 5).
pixel(13, 26, 0, 5).
pixel(14, 26, 0, 5).
pixel(15, 26, 0, 5).
pixel(16, 26, 0, 5).
pixel(17, 26, 0, 5).
pixel(18, 26, 0, 5).
pixel(19, 26, 0, 5).
pixel(20, 26, 0, 5).
pixel(21, 26, 0, 5).
pixel(22, 26, 0, 5).
pixel(23, 26, 0, 5).
pixel(24, 26, 0, 5).
pixel(25, 26, 0, 5).
pixel(26, 26, 0, 5).
pixel(27, 26, 0, 5).
pixel(28, 26, 0, 5).
pixel(1, 27, 0, 5).
pixel(2, 27, 0, 5).
pixel(3, 27, 0, 5).
pixel(4, 27, 0, 5).
pixel(5, 27, 0, 5).
pixel(6, 27, 0, 5).
pixel(7, 27, 0, 5).
pixel(8, 27, 0, 5).
pixel(9, 27, 0, 5).
pixel(10, 27, 0, 5).
pixel(11, 27, 0, 5).
pixel(12, 27, 0, 5).
pixel(13, 27, 0, 5).
pixel(14, 27, 0, 5).
pixel(15, 27, 0, 5).
pixel(16, 27, 0, 5).
pixel(17, 27, 0, 5).
pixel(18, 27, 0, 5).
pixel(19, 27, 0, 5).
pixel(20, 27, 0, 5).
pixel(21, 27, 0, 5).
pixel(22, 27, 0, 5).
pixel(23, 27, 0, 5).
pixel(24, 27, 0, 5).
pixel(25, 27, 0, 5).
pixel(26, 27, 0, 5).
pixel(27, 27, 0, 5).
pixel(28, 27, 0, 5).
pixel(1, 28, 0, 5).
pixel(2, 28, 0, 5).
pixel(3, 28, 0, 5).
pixel(4, 28, 0, 5).
pixel(5, 28, 0, 5).
pixel(6, 28, 0, 5).
pixel(7, 28, 0, 5).
pixel(8, 28, 0, 5).
pixel(9, 28, 0, 5).
pixel(10, 28, 0, 5).
pixel(11, 28, 0, 5).
pixel(12, 28, 0, 5).
pixel(13, 28, 0, 5).
pixel(14, 28, 0, 5).
pixel(15, 28, 0, 5).
pixel(16, 28, 0, 5).
pixel(17, 28, 0, 5).
pixel(18, 28, 0, 5).
pixel(19, 28, 0, 5).
pixel(20, 28, 0, 5).
pixel(21, 28, 0, 5).
pixel(22, 28, 0, 5).
pixel(23, 28, 0, 5).
pixel(24, 28, 0, 5).
pixel(25, 28, 0, 5).
pixel(26, 28, 0, 5).
pixel(27, 28, 0, 5).
pixel(28, 28, 0, 5).