hidden_depth(2).
input_size(3).
output_size(2).
hidden_size(1, 5).
hidden_size(2, 5).
neuron(bias, 0, 0).
neuron(input, 0, 1).
neuron(input, 0, 2).
neuron(input, 0, 3).
neuron(bias, 1, 0).
neuron(hidden, 1, 1).
neuron(hidden, 1, 2).
neuron(hidden, 1, 3).
neuron(hidden, 1, 4).
neuron(hidden, 1, 5).
neuron(bias, 2, 0).
neuron(hidden, 2, 1).
neuron(hidden, 2, 2).
neuron(hidden, 2, 3).
neuron(hidden, 2, 4).
neuron(hidden, 2, 5).
neuron(output, 3, 1).
neuron(output, 3, 2).
neuron(input, 0, 1, 123).
neuron(input, 0, 2, 456).
neuron(input, 0, 3, 789).
neuron(hidden, 1, 2, 0).
neuron(hidden, 1, 3, 0).
neuron(hidden, 1, 4, 0).
neuron(hidden, 1, 5, 0).
neuron(hidden, 1, 1, 58134).
neuron(hidden, 2, 1, 0).
neuron(hidden, 2, 4, 0).
neuron(hidden, 2, 2, 14017).
neuron(hidden, 2, 3, 24482).
neuron(hidden, 2, 5, 4149).
neuron(bias, 0, 0, -1).
neuron(bias, 1, 0, -100).
neuron(bias, 2, 0, -100).
edge(0, 0, 1, 1, 21).
edge(0, 0, 1, 3, 8).
edge(0, 0, 1, 5, 80).
edge(0, 1, 1, 3, 1).
edge(0, 1, 1, 4, 11).
edge(0, 2, 1, 1, 17).
edge(0, 2, 1, 5, 79).
edge(0, 3, 1, 1, 67).
edge(1, 1, 2, 2, 24).
edge(1, 1, 2, 3, 42).
edge(1, 1, 2, 5, 7).
edge(1, 2, 2, 1, 78).
edge(1, 2, 2, 4, 24).
edge(1, 2, 2, 5, 17).
edge(1, 3, 2, 2, 74).
edge(1, 3, 2, 3, 82).
edge(1, 3, 2, 4, 91).
edge(1, 3, 2, 5, 49).
edge(1, 4, 2, 3, 55).
edge(1, 4, 2, 4, 5).
edge(1, 5, 2, 1, 92).
edge(1, 5, 2, 2, 38).
edge(1, 5, 2, 3, 81).
edge(2, 0, 3, 1, 9).
edge(2, 0, 3, 2, 7).
edge(2, 1, 3, 1, 14).
edge(2, 1, 3, 2, 87).
edge(2, 2, 3, 2, 38).
edge(2, 4, 3, 1, 30).
edge(2, 4, 3, 2, 85).
edge(0, 0, 1, 2, -72).
edge(0, 0, 1, 4, -96).
edge(0, 1, 1, 1, -20).
edge(0, 1, 1, 2, -41).
edge(0, 1, 1, 5, -19).
edge(0, 2, 1, 2, -60).
edge(0, 2, 1, 3, -46).
edge(0, 2, 1, 4, -23).
edge(0, 3, 1, 2, -67).
edge(0, 3, 1, 3, -98).
edge(0, 3, 1, 4, -20).
edge(0, 3, 1, 5, -55).
edge(1, 0, 2, 1, -11).
edge(1, 0, 2, 2, -65).
edge(1, 0, 2, 3, -66).
edge(1, 0, 2, 4, -36).
edge(1, 0, 2, 5, -80).
edge(1, 1, 2, 1, -61).
edge(1, 1, 2, 4, -71).
edge(1, 2, 2, 2, -43).
edge(1, 2, 2, 3, -44).
edge(1, 3, 2, 1, -68).
edge(1, 4, 2, 1, -41).
edge(1, 4, 2, 2, -59).
edge(1, 4, 2, 5, -49).
edge(1, 5, 2, 4, -8).
edge(1, 5, 2, 5, -65).
edge(2, 2, 3, 1, -21).
edge(2, 3, 3, 1, -61).
edge(2, 3, 3, 2, -76).
edge(2, 5, 3, 1, -20).
edge(2, 5, 3, 2, -5).
neuron(output, 3, 1, 58).
neuron(output, 3, 2, 41).
