input_size(3).
hidden_depth(2).
hidden_size(0, 5).
hidden_size(1, 5).
output_size(2).
neuron(bias, 0, 0).
neuron(input, 0, 1).
neuron(input, 0, 2).
neuron(input, 0, 3).
neuron(bias, 1, 0).
neuron(hidden, 1, 1).
neuron(hidden, 1, 2).
neuron(hidden, 1, 3).
neuron(hidden, 1, 4).
neuron(hidden, 1, 5).
neuron(bias, 2, 0).
neuron(hidden, 2, 1).
neuron(hidden, 2, 2).
neuron(hidden, 2, 3).
neuron(hidden, 2, 4).
neuron(hidden, 2, 5).
neuron(output, 3, 0).
neuron(output, 3, 1).
edge(0, 0, 1, 1, 4078).
edge(0, 0, 1, 2, -6370).
edge(0, 0, 1, 3, -5930).
edge(0, 0, 1, 4, -1238).
edge(0, 0, 1, 5, -1825).
edge(0, 1, 1, 1, 3956).
edge(0, 1, 1, 2, 4363).
edge(0, 1, 1, 3, 1143).
edge(0, 1, 1, 4, 3544).
edge(0, 1, 1, 5, 5016).
edge(0, 2, 1, 1, -7201).
edge(0, 2, 1, 2, -6315).
edge(0, 2, 1, 3, 6539).
edge(0, 2, 1, 4, -5956).
edge(0, 2, 1, 5, -6428).
edge(0, 3, 1, 1, -8688).
edge(0, 3, 1, 2, 6383).
edge(0, 3, 1, 3, -6530).
edge(0, 3, 1, 4, -7963).
edge(0, 3, 1, 5, 3708).
edge(1, 0, 2, 1, 1580).
edge(1, 0, 2, 2, -2726).
edge(1, 0, 2, 3, -4438).
edge(1, 0, 2, 4, -147).
edge(1, 0, 2, 5, 1091).
edge(1, 1, 2, 1, 5072).
edge(1, 1, 2, 2, 8247).
edge(1, 1, 2, 3, -4731).
edge(1, 1, 2, 4, 7348).
edge(1, 1, 2, 5, -2424).
edge(1, 2, 2, 1, -6995).
edge(1, 2, 2, 2, 3127).
edge(1, 2, 2, 3, 6872).
edge(1, 2, 2, 4, -6814).
edge(1, 2, 2, 5, 3360).
edge(1, 3, 2, 1, 9534).
edge(1, 3, 2, 2, 5435).
edge(1, 3, 2, 3, 7892).
edge(1, 3, 2, 4, 3815).
edge(1, 3, 2, 5, 3199).
edge(1, 4, 2, 1, -5537).
edge(1, 4, 2, 2, 5441).
edge(1, 4, 2, 3, -4599).
edge(1, 4, 2, 4, -9423).
edge(1, 4, 2, 5, -9705).
edge(1, 5, 2, 1, -4076).
edge(1, 5, 2, 2, 5955).
edge(1, 5, 2, 3, 7191).
edge(1, 5, 2, 4, -6834).
edge(1, 5, 2, 5, -5312).
edge(2, 0, 3, 0, -6441).
edge(2, 0, 3, 1, 1584).
edge(2, 1, 3, 0, -3356).
edge(2, 1, 3, 1, 9742).
edge(2, 2, 3, 0, 756).
edge(2, 2, 3, 1, 1574).
edge(2, 3, 3, 0, 2090).
edge(2, 3, 3, 1, -5689).
edge(2, 4, 3, 0, 5292).
edge(2, 4, 3, 1, 2773).
edge(2, 5, 3, 0, -9680).
edge(2, 5, 3, 1, 6165).