input_size(7).
hidden_depth(2).
hidden_size(1, 5).
hidden_size(2, 3).
output_size(2).
neuron(bias, 0, 0).
neuron(input, 0, 1).
neuron(input, 0, 2).
neuron(input, 0, 3).
neuron(input, 0, 4).
neuron(input, 0, 5).
neuron(input, 0, 6).
neuron(input, 0, 7).
neuron(bias, 1, 0).
neuron(hidden, 1, 1).
neuron(hidden, 1, 2).
neuron(hidden, 1, 3).
neuron(hidden, 1, 4).
neuron(hidden, 1, 5).
neuron(bias, 2, 0).
neuron(hidden, 2, 1).
neuron(hidden, 2, 2).
neuron(hidden, 2, 3).
neuron(output, 3, 1).
neuron(output, 3, 2).
edge(0, 0, 1, 1, 73).
edge(0, 0, 1, 2, -83).
edge(0, 0, 1, 3, -55).
edge(0, 0, 1, 4, -91).
edge(0, 0, 1, 5, 31).
edge(0, 1, 1, 1, 47).
edge(0, 1, 1, 2, -82).
edge(0, 1, 1, 3, -38).
edge(0, 1, 1, 4, -84).
edge(0, 1, 1, 5, -23).
edge(0, 2, 1, 1, -22).
edge(0, 2, 1, 2, 71).
edge(0, 2, 1, 3, 99).
edge(0, 2, 1, 4, -16).
edge(0, 2, 1, 5, -58).
edge(0, 3, 1, 1, -14).
edge(0, 3, 1, 2, 5).
edge(0, 3, 1, 3, 35).
edge(0, 3, 1, 4, -28).
edge(0, 3, 1, 5, -30).
edge(0, 4, 1, 1, -90).
edge(0, 4, 1, 2, -88).
edge(0, 4, 1, 3, 79).
edge(0, 4, 1, 4, 26).
edge(0, 4, 1, 5, 33).
edge(0, 5, 1, 1, -71).
edge(0, 5, 1, 2, 22).
edge(0, 5, 1, 3, 28).
edge(0, 5, 1, 4, 60).
edge(0, 5, 1, 5, 65).
edge(0, 6, 1, 1, -92).
edge(0, 6, 1, 2, 63).
edge(0, 6, 1, 3, 90).
edge(0, 6, 1, 4, 22).
edge(0, 6, 1, 5, -63).
edge(0, 7, 1, 1, -40).
edge(0, 7, 1, 2, -9).
edge(0, 7, 1, 3, -41).
edge(0, 7, 1, 4, 84).
edge(0, 7, 1, 5, -42).
edge(1, 0, 2, 1, -93).
edge(1, 0, 2, 2, 43).
edge(1, 0, 2, 3, 68).
edge(1, 1, 2, 1, 32).
edge(1, 1, 2, 2, 71).
edge(1, 1, 2, 3, -69).
edge(1, 2, 2, 1, -75).
edge(1, 2, 2, 2, 63).
edge(1, 2, 2, 3, -48).
edge(1, 3, 2, 1, -45).
edge(1, 3, 2, 2, -64).
edge(1, 3, 2, 3, 2).
edge(1, 4, 2, 1, 52).
edge(1, 4, 2, 2, -46).
edge(1, 4, 2, 3, 66).
edge(1, 5, 2, 1, 48).
edge(1, 5, 2, 2, -68).
edge(1, 5, 2, 3, 3).
edge(2, 0, 3, 1, -21).
edge(2, 0, 3, 2, 5).
edge(2, 1, 3, 1, -64).
edge(2, 1, 3, 2, 92).
edge(2, 2, 3, 1, 14).
edge(2, 2, 3, 2, -55).
edge(2, 3, 3, 1, -9).
edge(2, 3, 3, 2, 86).