hidden_size(5).
input_size(3).
num_hidden_layers(2).
output_size(2).
neuron(input, 1, 1).
neuron(input, 1, 2).
neuron(input, 1, 3).
neuron(hidden, 2, 1).
neuron(hidden, 3, 1).
neuron(hidden, 2, 2).
neuron(hidden, 3, 2).
neuron(hidden, 2, 3).
neuron(hidden, 3, 3).
neuron(hidden, 2, 4).
neuron(hidden, 3, 4).
neuron(hidden, 2, 5).
neuron(hidden, 3, 5).
neuron(output, 4, 1).
neuron(output, 4, 2).
neuron(bias, 1, 0).
neuron(bias, 2, 0).
neuron(bias, 3, 0).
edge(1, 1, 2, 1, 5000).
edge(1, 2, 2, 1, 5000).
edge(1, 3, 2, 1, 5000).
edge(1, 0, 2, 1, 5000).
edge(2, 1, 3, 1, 5000).
edge(2, 2, 3, 1, 5000).
edge(2, 3, 3, 1, 5000).
edge(2, 4, 3, 1, 5000).
edge(2, 5, 3, 1, 5000).
edge(2, 0, 3, 1, 5000).
edge(1, 1, 2, 2, 5000).
edge(1, 2, 2, 2, 5000).
edge(1, 3, 2, 2, 5000).
edge(1, 0, 2, 2, 5000).
edge(2, 1, 3, 2, 5000).
edge(2, 2, 3, 2, 5000).
edge(2, 3, 3, 2, 5000).
edge(2, 4, 3, 2, 5000).
edge(2, 5, 3, 2, 5000).
edge(2, 0, 3, 2, 5000).
edge(1, 1, 2, 3, 5000).
edge(1, 2, 2, 3, 5000).
edge(1, 3, 2, 3, 5000).
edge(1, 0, 2, 3, 5000).
edge(2, 1, 3, 3, 5000).
edge(2, 2, 3, 3, 5000).
edge(2, 3, 3, 3, 5000).
edge(2, 4, 3, 3, 5000).
edge(2, 5, 3, 3, 5000).
edge(2, 0, 3, 3, 5000).
edge(1, 1, 2, 4, 5000).
edge(1, 2, 2, 4, 5000).
edge(1, 3, 2, 4, 5000).
edge(1, 0, 2, 4, 5000).
edge(2, 1, 3, 4, 5000).
edge(2, 2, 3, 4, 5000).
edge(2, 3, 3, 4, 5000).
edge(2, 4, 3, 4, 5000).
edge(2, 5, 3, 4, 5000).
edge(2, 0, 3, 4, 5000).
edge(1, 1, 2, 5, 5000).
edge(1, 2, 2, 5, 5000).
edge(1, 3, 2, 5, 5000).
edge(1, 0, 2, 5, 5000).
edge(2, 1, 3, 5, 5000).
edge(2, 2, 3, 5, 5000).
edge(2, 3, 3, 5, 5000).
edge(2, 4, 3, 5, 5000).
edge(2, 5, 3, 5, 5000).
edge(2, 0, 3, 5, 5000).
edge(3, 1, 4, 1, 5000).
edge(3, 2, 4, 1, 5000).
edge(3, 3, 4, 1, 5000).
edge(3, 4, 4, 1, 5000).
edge(3, 5, 4, 1, 5000).
edge(3, 0, 4, 1, 5000).
edge(3, 1, 4, 2, 5000).
edge(3, 2, 4, 2, 5000).
edge(3, 3, 4, 2, 5000).
edge(3, 4, 4, 2, 5000).
edge(3, 5, 4, 2, 5000).
edge(3, 0, 4, 2, 5000).