hidden_size(5).
input_size(3).
num_hidden_layers(2).
output_size(2).
neuron(input, 1, 1).
neuron(input, 1, 2).
neuron(input, 1, 3).
neuron(hidden, 2, 1).
neuron(hidden, 3, 1).
neuron(hidden, 2, 2).
neuron(hidden, 3, 2).
neuron(hidden, 2, 3).
neuron(hidden, 3, 3).
neuron(hidden, 2, 4).
neuron(hidden, 3, 4).
neuron(hidden, 2, 5).
neuron(hidden, 3, 5).
neuron(output, 4, 1).
neuron(output, 4, 2).
neuron(bias, 1, 0).
neuron(bias, 2, 0).
neuron(bias, 3, 0).
edge(1, 1, 2, 1, -2500).
edge(1, 2, 2, 1, 2313).
edge(1, 3, 2, 1, 2441).
edge(1, 0, 2, 1, 1579).
edge(2, 1, 3, 1, -1988).
edge(2, 2, 3, 1, -3875).
edge(2, 3, 3, 1, 4636).
edge(2, 4, 3, 1, 4235).
edge(2, 5, 3, 1, 140).
edge(2, 0, 3, 1, 2254).
edge(1, 1, 2, 2, -4356).
edge(1, 2, 2, 2, -1686).
edge(1, 3, 2, 2, 804).
edge(1, 0, 2, 2, -1510).
edge(2, 1, 3, 2, -4467).
edge(2, 2, 3, 2, 1516).
edge(2, 3, 3, 2, 4292).
edge(2, 4, 3, 2, -2864).
edge(2, 5, 3, 2, 53).
edge(2, 0, 3, 2, -3687).
edge(1, 1, 2, 3, -3433).
edge(1, 2, 2, 3, 1672).
edge(1, 3, 2, 3, 1207).
edge(1, 0, 2, 3, 802).
edge(2, 1, 3, 3, 2472).
edge(2, 2, 3, 3, -4757).
edge(2, 3, 3, 3, -4145).
edge(2, 4, 3, 3, -2437).
edge(2, 5, 3, 3, 1852).
edge(2, 0, 3, 3, 331).
edge(1, 1, 2, 4, -4040).
edge(1, 2, 2, 4, -4464).
edge(1, 3, 2, 4, 2032).
edge(1, 0, 2, 4, -2198).
edge(2, 1, 3, 4, 4053).
edge(2, 2, 3, 4, -3720).
edge(2, 3, 3, 4, -2454).
edge(2, 4, 3, 4, -1713).
edge(2, 5, 3, 4, -4174).
edge(2, 0, 3, 4, 1686).
edge(1, 1, 2, 5, -645).
edge(1, 2, 2, 5, 2285).
edge(1, 3, 2, 5, -2046).
edge(1, 0, 2, 5, -3345).
edge(2, 1, 3, 5, -628).
edge(2, 2, 3, 5, -3419).
edge(2, 3, 3, 5, -3210).
edge(2, 4, 3, 5, -854).
edge(2, 5, 3, 5, 4923).
edge(2, 0, 3, 5, -4477).
edge(3, 1, 4, 1, -4912).
edge(3, 2, 4, 1, -1166).
edge(3, 3, 4, 1, 2707).
edge(3, 4, 4, 1, -4729).
edge(3, 5, 4, 1, -740).
edge(3, 0, 4, 1, -3638).
edge(3, 1, 4, 2, 3656).
edge(3, 2, 4, 2, 4713).
edge(3, 3, 4, 2, -1408).
edge(3, 4, 4, 2, 2906).
edge(3, 5, 4, 2, 2183).
edge(3, 0, 4, 2, 2251).